200

Cu 0.000000000000000000e+00 4.593573644087142055e-02 0.000000000000000000e+00
Cu 0.000000000000000000e+00 1.423491758030405452e-01 0.000000000000000000e+00
Cu 0.000000000000000000e+00 2.374545902799367059e-01 0.000000000000000000e+00
Cu 0.000000000000000000e+00 3.319682812025460672e-01 0.000000000000000000e+00
Cu 0.000000000000000000e+00 4.262776791189587522e-01 0.000000000000000000e+00
Cu 0.000000000000000000e+00 5.205808239687959027e-01 0.000000000000000000e+00
Cu 0.000000000000000000e+00 6.150380040846341601e-01 0.000000000000000000e+00
Cu 0.000000000000000000e+00 7.098271611188989860e-01 0.000000000000000000e+00
Cu 0.000000000000000000e+00 8.052946819501466402e-01 0.000000000000000000e+00
Cu 0.000000000000000000e+00 9.020910806742975518e-01 0.000000000000000000e+00
Cu 1.303190488284253767e-01 5.082884478891484814e-02 0.000000000000000000e+00
Cu 1.290216423211786034e-01 1.440404292419768251e-01 0.000000000000000000e+00
Cu 1.289732087362594204e-01 2.381626289202244395e-01 0.000000000000000000e+00
Cu 1.289161211485188030e-01 3.323089850199849038e-01 0.000000000000000000e+00
Cu 1.288189322405749182e-01 4.263967824692145303e-01 0.000000000000000000e+00
Cu 1.286684064703743358e-01 5.205160482474449068e-01 0.000000000000000000e+00
Cu 1.284764285125300498e-01 6.147610503168325913e-01 0.000000000000000000e+00
Cu 1.282750329749347828e-01 7.092022008753767759e-01 0.000000000000000000e+00
Cu 1.281073762395610049e-01 8.037333148622529677e-01 0.000000000000000000e+00
Cu 1.291958747014887998e-01 8.974665018492531399e-01 0.000000000000000000e+00
Cu 2.600450992443451015e-01 5.313153410464675069e-02 0.000000000000000000e+00
Cu 2.589648893978777067e-01 1.461293855538287889e-01 0.000000000000000000e+00
Cu 2.583766099150732187e-01 2.394080361825459413e-01 0.000000000000000000e+00
Cu 2.581360265901478379e-01 3.330192940888306308e-01 0.000000000000000000e+00
Cu 2.578842664550197727e-01 4.267295513528482909e-01 0.000000000000000000e+00
Cu 2.575738601526850746e-01 5.205082733298481701e-01 0.000000000000000000e+00
Cu 2.572355746678299804e-01 6.143760449620560005e-01 0.000000000000000000e+00
Cu 2.569547780961824457e-01 7.082824702617523949e-01 0.000000000000000000e+00
Cu 2.570853758046631743e-01 8.019916762862563386e-01 0.000000000000000000e+00
Cu 2.577723148291101163e-01 8.955459572636915722e-01 0.000000000000000000e+00
Cu 3.896725221972411890e-01 5.474636403170603238e-02 0.000000000000000000e+00
Cu 3.888009460614451074e-01 1.477072808882476940e-01 0.000000000000000000e+00
Cu 3.881547424748017505e-01 2.407614123575171072e-01 0.000000000000000000e+00
Cu 3.877194813668242146e-01 3.339695401256515539e-01 0.000000000000000000e+00
Cu 3.873216080607801426e-01 4.272698892177288488e-01 0.000000000000000000e+00
Cu 3.868381016858344901e-01 5.206081608546294648e-01 0.000000000000000000e+00
Cu 3.863414538417279109e-01 6.140204165176543771e-01 0.000000000000000000e+00
Cu 3.859937429282769839e-01 7.074754843855372011e-01 0.000000000000000000e+00
Cu 3.859196618989089167e-01 8.009504903890226624e-01 0.000000000000000000e+00
Cu 3.861603334457868186e-01 8.945086853893287060e-01 0.000000000000000000e+00
Cu 5.193032758613650435e-01 5.602663110234080285e-02 0.000000000000000000e+00
Cu 5.185983094955285422e-01 1.489671816048439845e-01 0.000000000000000000e+00
Cu 5.180334183404187165e-01 2.419513541473937157e-01 0.000000000000000000e+00
Cu 5.175901886316486289e-01 3.349903445003182267e-01 0.000000000000000000e+00
Cu 5.171843437723491199e-01 4.280332854762428640e-01 0.000000000000000000e+00
Cu 5.165626222348027596e-01 5.209279814341606363e-01 0.000000000000000000e+00
Cu 5.157798783290602485e-01 6.138321129231789630e-01 0.000000000000000000e+00
Cu 5.151281156307493392e-01 7.070062471068949694e-01 0.000000000000000000e+00
Cu 5.146532498282017087e-01 8.004452304960653075e-01 0.000000000000000000e+00
Cu 5.143705599486516622e-01 8.940878815027083482e-01 0.000000000000000000e+00
Cu 6.489817652711598051e-01 5.707485810494868084e-02 0.000000000000000000e+00
Cu 6.484208076063613380e-01 1.499857481249643465e-01 0.000000000000000000e+00
Cu 6.479688503431715318e-01 2.429393074265765173e-01 0.000000000000000000e+00
Cu 6.476261527340352320e-01 3.359372814971671173e-01 0.000000000000000000e+00
Cu 6.473097868254285014e-01 4.289210096231891312e-01 0.000000000000000000e+00
Cu 6.469446255443196403e-01 5.217507180236073960e-01 0.000000000000000000e+00
Cu 6.456655821462818912e-01 6.139608164037737570e-01 0.000000000000000000e+00
Cu 6.442156585320948370e-01 7.067124910363742352e-01 0.000000000000000000e+00
Cu 6.432286195299246057e-01 8.004783562649219197e-01 0.000000000000000000e+00
Cu 6.423193277297923887e-01 8.944588748007933354e-01 0.000000000000000000e+00
Cu 7.787506603920322235e-01 5.792389042308485753e-02 0.000000000000000000e+00
Cu 7.783151009992926861e-01 1.507838021371499526e-01 0.000000000000000000e+00
Cu 7.779739267999600250e-01 2.437010722777762650e-01 0.000000000000000000e+00
Cu 7.777311927898110655e-01 3.366905509644683159e-01 0.000000000000000000e+00
Cu 7.776032399512170512e-01 4.297484219721232623e-01 0.000000000000000000e+00
Cu 7.773656293527620997e-01 5.227803621606734730e-01 0.000000000000000000e+00
Cu 7.772948262842491740e-01 6.155938972682118981e-01 0.000000000000000000e+00
Cu 7.731580066414409647e-01 7.060475901792792053e-01 0.000000000000000000e+00
Cu 7.706081659827545005e-01 8.007761307003560258e-01 0.000000000000000000e+00
Cu 7.703317381859240420e-01 8.962245238140386094e-01 0.000000000000000000e+00
Cu 9.086589943561719229e-01 5.859151022234775769e-02 0.000000000000000000e+00
Cu 9.083325618344191277e-01 1.513713447776431076e-01 0.000000000000000000e+00
Cu 9.080785404731416266e-01 2.442178385410196939e-01 0.000000000000000000e+00
Cu 9.079290356758004110e-01 3.371613564886073999e-01 0.000000000000000000e+00
Cu 9.078635041763086777e-01 4.302396949545017613e-01 0.000000000000000000e+00
Cu 9.080264197379870339e-01 5.235217888742216275e-01 0.000000000000000000e+00
Cu 9.076095027804441662e-01 6.170702504313531067e-01 0.000000000000000000e+00
Cu 9.096553462129913781e-01 7.112617801596713418e-01 0.000000000000000000e+00
Cu 8.886299731982241212e-01 7.980838171361748223e-01 0.000000000000000000e+00
Cu 9.031254806256172607e-01 8.946115585662649528e-01 0.000000000000000000e+00
Cu 1.038761414808206718e+00 5.909912209636165870e-02 0.000000000000000000e+00
Cu 1.038527068920149787e+00 1.517665454214216503e-01 0.000000000000000000e+00
Cu 1.038350768754060738e+00 2.444936214654638840e-01 0.000000000000000000e+00
Cu 1.038257309073521872e+00 3.373052568107073879e-01 0.000000000000000000e+00
Cu 1.038311561963448648e+00 4.302397295743294880e-01 0.000000000000000000e+00
Cu 1.038388866837813840e+00 5.233709981771675901e-01 0.000000000000000000e+00
Cu 1.039292533273384000e+00 6.167670723837161972e-01 0.000000000000000000e+00
Cu 1.037920782788131824e+00 7.108331094710800269e-01 0.000000000000000000e+00
Cu 1.059706403180139977e+00 7.973207126039898451e-01 0.000000000000000000e+00
Cu 1.046147575154436238e+00 8.938550361551362844e-01 0.000000000000000000e+00
Cu 1.169108423659362739e+00 5.947660554105413389e-02 0.000000000000000000e+00
Cu 1.168955469036478734e+00 1.520023683370680390e-01 0.000000000000000000e+00
Cu 1.168853990922669617e+00 2.445600562090098629e-01 0.000000000000000000e+00
Cu 1.168852802244021660e+00 3.371455463089012561e-01 0.000000000000000000e+00
Cu 1.168973482614034110e+00 4.297553882096472599e-01 0.000000000000000000e+00
Cu 1.169460158901632463e+00 5.223154650512641384e-01 0.000000000000000000e+00
Cu 1.170010933283617272e+00 6.146655828265892296e-01 0.000000000000000000e+00
Cu 1.174829128264190281e+00 7.046537432799131473e-01 0.000000000000000000e+00
Cu 1.178215548238797705e+00 7.989405852542427189e-01 0.000000000000000000e+00
Cu 1.179476043083479420e+00 8.939832084887170405e-01 0.000000000000000000e+00
Cu 1.299737562445108630e+00 5.976194805653589626e-02 0.000000000000000000e+00
Cu 1.299659509355227227e+00 1.521271178411837677e-01 0.000000000000000000e+00
Cu 1.299655639339240443e+00 2.444780001107931811e-01 0.000000000000000000e+00
Cu 1.299767246442161017e+00 3.367743342962110642e-01 0.000000000000000000e+00
Cu 1.300099008105897180e+00 4.289575164017671582e-01 0.000000000000000000e+00
Cu 1.300721380132756622e+00 5.209372570958714643e-01 0.000000000000000000e+00
Cu 1.302492147844217074e+00 6.123143951153160458e-01 0.000000000000000000e+00
Cu 1.304648904172745816e+00 7.042954073795281156e-01 0.000000000000000000e+00
Cu 1.306536806738267886e+00 7.973654707098987160e-01 0.000000000000000000e+00
Cu 1.308457188977195651e+00 8.906888706965636615e-01 0.000000000000000000e+00
Cu 1.430659945232515051e+00 5.999668325564717908e-02 0.000000000000000000e+00
Cu 1.430661591656263276e+00 1.521995329879954340e-01 0.000000000000000000e+00
Cu 1.430781441650030406e+00 2.443328833105260223e-01 0.000000000000000000e+00
Cu 1.431058432481187026e+00 3.363264641615978379e-01 0.000000000000000000e+00
Cu 1.431547094380160923e+00 4.281340978304215561e-01 0.000000000000000000e+00
Cu 1.432452379515520402e+00 5.197016326185605051e-01 0.000000000000000000e+00
Cu 1.433710151946948841e+00 6.113248419321094529e-01 0.000000000000000000e+00
Cu 1.435062529403899223e+00 7.033685297851960394e-01 0.000000000000000000e+00
Cu 1.436465695455975355e+00 7.958398349918461845e-01 0.000000000000000000e+00
Cu 1.437858346619858674e+00 8.886026912520447185e-01 0.000000000000000000e+00
Cu 1.561852125456597795e+00 6.021396772849697127e-02 0.000000000000000000e+00
Cu 1.561952196392043524e+00 1.522751188627402552e-01 0.000000000000000000e+00
Cu 1.562238764970091065e+00 2.442092375916457281e-01 0.000000000000000000e+00
Cu 1.562694247731987174e+00 3.359399475774447197e-01 0.000000000000000000e+00
Cu 1.563334270576196783e+00 4.274587560110928997e-01 0.000000000000000000e+00
Cu 1.564139838519007064e+00 5.188936362870297803e-01 0.000000000000000000e+00
Cu 1.565029633705394607e+00 6.104691667578154846e-01 0.000000000000000000e+00
Cu 1.565959937642642963e+00 7.023428252817640605e-01 0.000000000000000000e+00
Cu 1.566936844330290235e+00 7.945521597734733765e-01 0.000000000000000000e+00
Cu 1.567927928192548226e+00 8.870312613888832187e-01 0.000000000000000000e+00
Cu 1.693249078928368290e+00 6.041839407876196250e-02 0.000000000000000000e+00
Cu 1.693496120585899600e+00 1.523800252673437050e-01 0.000000000000000000e+00
Cu 1.694009690572988447e+00 2.441560724083317313e-01 0.000000000000000000e+00
Cu 1.694685292661962883e+00 3.356746774383754794e-01 0.000000000000000000e+00
Cu 1.695414999879282014e+00 4.269868293175015928e-01 0.000000000000000000e+00
Cu 1.696099337471171697e+00 5.182506813230702836e-01 0.000000000000000000e+00
Cu 1.696694335413119203e+00 6.096574892350601349e-01 0.000000000000000000e+00
Cu 1.697235496613517913e+00 7.013515309035103229e-01 0.000000000000000000e+00
Cu 1.697802464353715290e+00 7.933848995432345452e-01 0.000000000000000000e+00
Cu 1.698474046732936227e+00 8.856847906164105888e-01 0.000000000000000000e+00
Cu 1.824743462685277873e+00 6.055857755567715939e-02 0.000000000000000000e+00
Cu 1.825236082514897884e+00 1.524806544031477862e-01 0.000000000000000000e+00
Cu 1.826087524280031404e+00 2.441434673450110227e-01 0.000000000000000000e+00
Cu 1.827060349132053174e+00 3.354954746824218570e-01 0.000000000000000000e+00
Cu 1.827923469323326167e+00 4.266274780673767753e-01 0.000000000000000000e+00
Cu 1.828512700670622770e+00 5.177094703746825122e-01 0.000000000000000000e+00
Cu 1.828798693372227335e+00 6.089286749873359383e-01 0.000000000000000000e+00
Cu 1.828893132091195417e+00 7.004441855738691158e-01 0.000000000000000000e+00
Cu 1.828989749532021536e+00 7.923338730125795148e-01 0.000000000000000000e+00
Cu 1.829302588443330935e+00 8.845317334077367200e-01 0.000000000000000000e+00
Cu 1.956179086510154930e+00 6.049625975546985696e-02 0.000000000000000000e+00
Cu 1.957106277417590690e+00 1.524514995064548684e-01 0.000000000000000000e+00
Cu 1.958488000513808780e+00 2.440320416282509564e-01 0.000000000000000000e+00
Cu 1.959897664514957283e+00 3.352507252425104278e-01 0.000000000000000000e+00
Cu 1.960969317065846651e+00 4.262825097763527915e-01 0.000000000000000000e+00
Cu 1.961487842343617727e+00 5.172913605739020149e-01 0.000000000000000000e+00
Cu 1.961429124700694748e+00 6.083939625705604426e-01 0.000000000000000000e+00
Cu 1.960964264741458685e+00 6.997466940838531491e-01 0.000000000000000000e+00
Cu 1.960425649692913108e+00 7.915117787464438504e-01 0.000000000000000000e+00
Cu 1.960216957880870803e+00 8.836864719811474700e-01 0.000000000000000000e+00
Cu 2.087322129579375130e+00 5.996037849235835715e-02 0.000000000000000000e+00
Cu 2.089049329499848007e+00 1.520331798608242635e-01 0.000000000000000000e+00
Cu 2.091286950144605861e+00 2.435241466768200136e-01 0.000000000000000000e+00
Cu 2.093283269641847522e+00 3.346729274524279374e-01 0.000000000000000000e+00
Cu 2.094567967350288828e+00 4.258307325303253288e-01 0.000000000000000000e+00
Cu 2.095037340084081379e+00 5.170691719612182657e-01 0.000000000000000000e+00
Cu 2.094668933101974773e+00 6.082816047487591415e-01 0.000000000000000000e+00
Cu 2.093525183824257674e+00 6.995338794862078213e-01 0.000000000000000000e+00
Cu 2.092046436713975055e+00 7.911669798245463125e-01 0.000000000000000000e+00
Cu 2.090965030770352229e+00 8.834083477803434947e-01 0.000000000000000000e+00
Cu 2.217754626331831069e+00 5.842835998220276966e-02 0.000000000000000000e+00
Cu 2.221081556696692605e+00 1.507139472192880469e-01 0.000000000000000000e+00
Cu 2.224685184012448858e+00 2.420640455567691363e-01 0.000000000000000000e+00
Cu 2.227231391726141041e+00 3.334249987328588016e-01 0.000000000000000000e+00
Cu 2.228574541025418743e+00 4.251875712524648132e-01 0.000000000000000000e+00
Cu 2.229013517392685717e+00 5.170881971554954770e-01 0.000000000000000000e+00
Cu 2.228526037091915324e+00 6.088949003716858099e-01 0.000000000000000000e+00
Cu 2.226771583884338934e+00 7.003388699683107399e-01 0.000000000000000000e+00
Cu 2.223862604826850387e+00 7.917991709232057307e-01 0.000000000000000000e+00
Cu 2.221119494673658323e+00 8.842112647332758257e-01 0.000000000000000000e+00
Cu 2.346493031034895260e+00 5.464380877532602071e-02 0.000000000000000000e+00
Cu 2.353608354811486780e+00 1.472347448362353040e-01 0.000000000000000000e+00
Cu 2.358901134271268685e+00 2.388611067975648095e-01 0.000000000000000000e+00
Cu 2.361412794605041388e+00 3.314894529855715866e-01 0.000000000000000000e+00
Cu 2.362776477802146058e+00 4.243599539320736524e-01 0.000000000000000000e+00
Cu 2.363198966063302375e+00 5.173024199134327317e-01 0.000000000000000000e+00
Cu 2.362659948570661417e+00 6.102189876566208593e-01 0.000000000000000000e+00
Cu 2.360910574422672603e+00 7.029282387498829721e-01 0.000000000000000000e+00
Cu 2.356277627475253045e+00 7.946594773986268567e-01 0.000000000000000000e+00
Cu 2.349695596202566961e+00 8.873516599458417531e-01 0.000000000000000000e+00
Cu 2.470266648554098499e+00 4.250768912739785743e-02 0.000000000000000000e+00
Cu 2.487888231970056374e+00 1.389925605460790303e-01 0.000000000000000000e+00
Cu 2.492815958273652654e+00 2.346707879573431688e-01 0.000000000000000000e+00
Cu 2.495657133091155444e+00 3.293302283419020648e-01 0.000000000000000000e+00
Cu 2.497027784531524297e+00 4.234864247716263463e-01 0.000000000000000000e+00
Cu 2.497441745198059504e+00 5.175321470936988799e-01 0.000000000000000000e+00
Cu 2.496881180332398475e+00 6.117498748136945830e-01 0.000000000000000000e+00
Cu 2.494798132343243768e+00 7.065214479737096376e-01 0.000000000000000000e+00
Cu 2.490537738674224677e+00 8.023324950677737100e-01 0.000000000000000000e+00
Cu 2.473454802062021951e+00 8.989674572808481479e-01 0.000000000000000000e+00
