200

Cu 0.000000000000000000e+00 6.605688387433740483e-02 0.000000000000000000e+00
Cu 0.000000000000000000e+00 1.578578888539165781e-01 0.000000000000000000e+00
Cu 0.000000000000000000e+00 2.475865464341448774e-01 0.000000000000000000e+00
Cu 0.000000000000000000e+00 3.363499941734869325e-01 0.000000000000000000e+00
Cu 0.000000000000000000e+00 4.247853533832315898e-01 0.000000000000000000e+00
Cu 0.000000000000000000e+00 5.133291175260563666e-01 0.000000000000000000e+00
Cu 0.000000000000000000e+00 6.023873552759291261e-01 0.000000000000000000e+00
Cu 0.000000000000000000e+00 6.923296029750420910e-01 0.000000000000000000e+00
Cu 0.000000000000000000e+00 7.836273060760463594e-01 0.000000000000000000e+00
Cu 0.000000000000000000e+00 8.770645458716134213e-01 0.000000000000000000e+00
Cu 1.429736504862804680e-01 7.313870184732618185e-02 0.000000000000000000e+00
Cu 1.412219960121975648e-01 1.604944962262480346e-01 0.000000000000000000e+00
Cu 1.410523219203290712e-01 2.488668922801410555e-01 0.000000000000000000e+00
Cu 1.407503473126894278e-01 3.370825140166879286e-01 0.000000000000000000e+00
Cu 1.402450876766311583e-01 4.251189239128244646e-01 0.000000000000000000e+00
Cu 1.394898801916321651e-01 5.132720050879959750e-01 0.000000000000000000e+00
Cu 1.385654476871590601e-01 6.019066118419883482e-01 0.000000000000000000e+00
Cu 1.376536689394063373e-01 6.913183782749076078e-01 0.000000000000000000e+00
Cu 1.369252494732965675e-01 7.814274370077715082e-01 0.000000000000000000e+00
Cu 1.380049777832035307e-01 8.709749864076052894e-01 0.000000000000000000e+00
Cu 2.851007100933248273e-01 7.696198098879926397e-02 0.000000000000000000e+00
Cu 2.835255734922115245e-01 1.639828814483338670e-01 0.000000000000000000e+00
Cu 2.825785716468032782e-01 2.512767247352186706e-01 0.000000000000000000e+00
Cu 2.818836881557741370e-01 3.387702142888770473e-01 0.000000000000000000e+00
Cu 2.808276126573659437e-01 4.261966896799793125e-01 0.000000000000000000e+00
Cu 2.792846204586751369e-01 5.136741289932413856e-01 0.000000000000000000e+00
Cu 2.773851502327839280e-01 6.015249534608938520e-01 0.000000000000000000e+00
Cu 2.755186722374065034e-01 6.900337009808548139e-01 0.000000000000000000e+00
Cu 2.744871828927711865e-01 7.790852299212895904e-01 0.000000000000000000e+00
Cu 2.747501364990666550e-01 8.685320425275304679e-01 0.000000000000000000e+00
Cu 4.269677730626318946e-01 8.002928541771162085e-02 0.000000000000000000e+00
Cu 4.255714550764913007e-01 1.670821708814131390e-01 0.000000000000000000e+00
Cu 4.245203691892856512e-01 2.541540281095868714e-01 0.000000000000000000e+00
Cu 4.234574982375576835e-01 3.411413927002199808e-01 0.000000000000000000e+00
Cu 4.219024612473291636e-01 4.279316465881701781e-01 0.000000000000000000e+00
Cu 4.195615811974049980e-01 5.145950625358718389e-01 0.000000000000000000e+00
Cu 4.165500570595779273e-01 6.014720374317484852e-01 0.000000000000000000e+00
Cu 4.134577719852738920e-01 6.890406803445519035e-01 0.000000000000000000e+00
Cu 4.111337421551136684e-01 7.777185135624464785e-01 0.000000000000000000e+00
Cu 4.102281101806306562e-01 8.675677623851825171e-01 0.000000000000000000e+00
Cu 5.686022661931496858e-01 8.273008557316695322e-02 0.000000000000000000e+00
Cu 5.674172057405352243e-01 1.698984121939042524e-01 0.000000000000000000e+00
Cu 5.664876908970848390e-01 2.570376820325278588e-01 0.000000000000000000e+00
Cu 5.654201107139379401e-01 3.439198587241414917e-01 0.000000000000000000e+00
Cu 5.636109779187062907e-01 4.303003063381131144e-01 0.000000000000000000e+00
Cu 5.606186578979526214e-01 5.162013747229132754e-01 0.000000000000000000e+00
Cu 5.563629927913823492e-01 6.020665562137671456e-01 0.000000000000000000e+00
Cu 5.513259416341497188e-01 6.887046376807076653e-01 0.000000000000000000e+00
Cu 5.466462044839598411e-01 7.771569454563669321e-01 0.000000000000000000e+00
Cu 5.436915559091031191e-01 8.678715881838662272e-01 0.000000000000000000e+00
Cu 7.100221752590514246e-01 8.505181438945245975e-02 0.000000000000000000e+00
Cu 7.090811591028604033e-01 1.723534926450997207e-01 0.000000000000000000e+00
Cu 7.083973040421639444e-01 2.596915609225045607e-01 0.000000000000000000e+00
Cu 7.076179704776057733e-01 3.468284477650917519e-01 0.000000000000000000e+00
Cu 7.059021361591009125e-01 4.332355441516289041e-01 0.000000000000000000e+00
Cu 7.027249496066537704e-01 5.189489436561890434e-01 0.000000000000000000e+00
Cu 6.970809564266050584e-01 6.039158756194361599e-01 0.000000000000000000e+00
Cu 6.891330498547700856e-01 6.894021724225221082e-01 0.000000000000000000e+00
Cu 6.801436500294465448e-01 7.774846363393708160e-01 0.000000000000000000e+00
Cu 6.730317358113473425e-01 8.699605600050311915e-01 0.000000000000000000e+00
Cu 8.512778134083806014e-01 8.688562695437367089e-02 0.000000000000000000e+00
Cu 8.506184775990379698e-01 1.742886088520976262e-01 0.000000000000000000e+00
Cu 8.501828842967908972e-01 2.618426940195493491e-01 0.000000000000000000e+00
Cu 8.497306952088652388e-01 3.494263611343601528e-01 0.000000000000000000e+00
Cu 8.490230465135737425e-01 4.368222259250508777e-01 0.000000000000000000e+00
Cu 8.456016430834265574e-01 5.229212705523335059e-01 0.000000000000000000e+00
Cu 8.391394824682758546e-01 6.082446308000586388e-01 0.000000000000000000e+00
Cu 8.263329203132925294e-01 6.927782051438993172e-01 0.000000000000000000e+00
Cu 8.099355442726926535e-01 7.816871318007442282e-01 0.000000000000000000e+00
Cu 7.936797696461018736e-01 8.769402541910640281e-01 0.000000000000000000e+00
Cu 9.924764648482430340e-01 8.812885469172482278e-02 0.000000000000000000e+00
Cu 9.921011404482843465e-01 1.755582002440539136e-01 0.000000000000000000e+00
Cu 9.918874412150333608e-01 2.632295701763346929e-01 0.000000000000000000e+00
Cu 9.918207258132322179e-01 3.512648207738223172e-01 0.000000000000000000e+00
Cu 9.911298100631039665e-01 4.397860847421027897e-01 0.000000000000000000e+00
Cu 9.908627642507481514e-01 5.292937946146636374e-01 0.000000000000000000e+00
Cu 9.815118815727805757e-01 6.152513840574888038e-01 0.000000000000000000e+00
Cu 9.637149624233714018e-01 7.039611792351081476e-01 0.000000000000000000e+00
Cu 9.312277066015344218e-01 7.957291032198204883e-01 0.000000000000000000e+00
Cu 9.031041737049926299e-01 8.963892438696732246e-01 0.000000000000000000e+00
Cu 1.133756781718082474e+00 8.873239716255679199e-02 0.000000000000000000e+00
Cu 1.133669305754958723e+00 1.760891385334363568e-01 0.000000000000000000e+00
Cu 1.133645086318807005e+00 2.637161662648150884e-01 0.000000000000000000e+00
Cu 1.133580038182131267e+00 3.518412961219259949e-01 0.000000000000000000e+00
Cu 1.133938123988995850e+00 4.412138162483403847e-01 0.000000000000000000e+00
Cu 1.131140031115422717e+00 5.324495622504324954e-01 0.000000000000000000e+00
Cu 1.132179067921838422e+00 6.291539060416638796e-01 0.000000000000000000e+00
Cu 1.094734285496490989e+00 7.196502930597080683e-01 0.000000000000000000e+00
Cu 1.211860965919760336e+00 7.895950300015164292e-01 0.000000000000000000e+00
Cu 1.238526328767430185e+00 8.988016701847260093e-01 0.000000000000000000e+00
Cu 1.275270033620430787e+00 8.871813972342923460e-02 0.000000000000000000e+00
Cu 1.275454371368116346e+00 1.759084133044108711e-01 0.000000000000000000e+00
Cu 1.275608570076040227e+00 2.633011421029107235e-01 0.000000000000000000e+00
Cu 1.275846109718757893e+00 3.511155324447581827e-01 0.000000000000000000e+00
Cu 1.275249144211357821e+00 4.399249196025368791e-01 0.000000000000000000e+00
Cu 1.277809063375027865e+00 5.315940342072155156e-01 0.000000000000000000e+00
Cu 1.257223837656186394e+00 6.265753328231939978e-01 0.000000000000000000e+00
Cu 1.318510315371092423e+00 6.921940653590632486e-01 0.000000000000000000e+00
Cu 1.339572692192594783e+00 7.895178641588264101e-01 0.000000000000000000e+00
Cu 1.345635634964325478e+00 8.824479448048132557e-01 0.000000000000000000e+00
Cu 1.417133008243219638e+00 8.818015034962947696e-02 0.000000000000000000e+00
Cu 1.417574284261674755e+00 1.751360053496970881e-01 0.000000000000000000e+00
Cu 1.417991015682875000e+00 2.621633370258855678e-01 0.000000000000000000e+00
Cu 1.418318728157985431e+00 3.493097883462821795e-01 0.000000000000000000e+00
Cu 1.419253505225589240e+00 4.365153700684655247e-01 0.000000000000000000e+00
Cu 1.417588746242408160e+00 5.239662797554580642e-01 0.000000000000000000e+00
Cu 1.446986730470464000e+00 6.003190466301846495e-01 0.000000000000000000e+00
Cu 1.443618445082974322e+00 6.858245565807761235e-01 0.000000000000000000e+00
Cu 1.460169183440680252e+00 7.776310723269354019e-01 0.000000000000000000e+00
Cu 1.468369029954349703e+00 8.719411110056057845e-01 0.000000000000000000e+00
Cu 1.559402611223482227e+00 8.726776508340355898e-02 0.000000000000000000e+00
Cu 1.560078792606173881e+00 1.739720265332706239e-01 0.000000000000000000e+00
Cu 1.560784437379302947e+00 2.605892990744762550e-01 0.000000000000000000e+00
Cu 1.561734320652052643e+00 3.469693949247798503e-01 0.000000000000000000e+00
Cu 1.562710250989321592e+00 4.328005030804884523e-01 0.000000000000000000e+00
Cu 1.568069620549024767e+00 5.154861691169256854e-01 0.000000000000000000e+00
Cu 1.575129094987292033e+00 5.990774231919729909e-01 0.000000000000000000e+00
Cu 1.582801299228055347e+00 6.849720957277309896e-01 0.000000000000000000e+00
Cu 1.589059054843643404e+00 7.730375608619423078e-01 0.000000000000000000e+00
Cu 1.593782052991518983e+00 8.644576246460637936e-01 0.000000000000000000e+00
Cu 1.702051519700894078e+00 8.615164064305720626e-02 0.000000000000000000e+00
Cu 1.702938931781371679e+00 1.726415799035094789e-01 0.000000000000000000e+00
Cu 1.704013238476282943e+00 2.589096481764810997e-01 0.000000000000000000e+00
Cu 1.705340590254841748e+00 3.447575771475349105e-01 0.000000000000000000e+00
Cu 1.707626245664481512e+00 4.296984784466787444e-01 0.000000000000000000e+00
Cu 1.711123336952006913e+00 5.139935610722069503e-01 0.000000000000000000e+00
Cu 1.715517843812970122e+00 5.985472490623109376e-01 0.000000000000000000e+00
Cu 1.720063976204067702e+00 6.842764017045794844e-01 0.000000000000000000e+00
Cu 1.723839587283620078e+00 7.717949108597182972e-01 0.000000000000000000e+00
Cu 1.726010509083377720e+00 8.609022536570288819e-01 0.000000000000000000e+00
Cu 1.844969379152135769e+00 8.497055324941933663e-02 0.000000000000000000e+00
Cu 1.846068501512995841e+00 1.713308900010306612e-01 0.000000000000000000e+00
Cu 1.847502817305178402e+00 2.573866552151480858e-01 0.000000000000000000e+00
Cu 1.849325472070078691e+00 3.429367714977961112e-01 0.000000000000000000e+00
Cu 1.851598108516512520e+00 4.279785838751740679e-01 0.000000000000000000e+00
Cu 1.854272743089177222e+00 5.128027944742912236e-01 0.000000000000000000e+00
Cu 1.857123211085767167e+00 5.979285007861983026e-01 0.000000000000000000e+00
Cu 1.859768931762692423e+00 6.839056605283098111e-01 0.000000000000000000e+00
Cu 1.861810457634705873e+00 7.710101545717444882e-01 0.000000000000000000e+00
Cu 1.862984461228215816e+00 8.590252055709602930e-01 0.000000000000000000e+00
Cu 1.987975221745160059e+00 8.377432419948771525e-02 0.000000000000000000e+00
Cu 1.989336103917337839e+00 1.701182526656741523e-01 0.000000000000000000e+00
Cu 1.991198504932140123e+00 2.560982182932510787e-01 0.000000000000000000e+00
Cu 1.993360072394677829e+00 3.416088058386541060e-01 0.000000000000000000e+00
Cu 1.995611702753667505e+00 4.267650681868687124e-01 0.000000000000000000e+00
Cu 1.997742443683191427e+00 5.118583347000138506e-01 0.000000000000000000e+00
Cu 1.999563738054765949e+00 5.972767755705796766e-01 0.000000000000000000e+00
Cu 2.000949781442324493e+00 6.833727520759124152e-01 0.000000000000000000e+00
Cu 2.001877026067441001e+00 7.702897384985926132e-01 0.000000000000000000e+00
Cu 2.002433967773258328e+00 8.578329646803050101e-01 0.000000000000000000e+00
Cu 2.130826247162107112e+00 8.247319469363532940e-02 0.000000000000000000e+00
Cu 2.132610116467298589e+00 1.689255701238077945e-01 0.000000000000000000e+00
Cu 2.135039494167632501e+00 2.549376009405855958e-01 0.000000000000000000e+00
Cu 2.137626630194787491e+00 3.404978509062496217e-01 0.000000000000000000e+00
Cu 2.139949062176095484e+00 4.258291341235488359e-01 0.000000000000000000e+00
Cu 2.141707683164658427e+00 5.111915153034080062e-01 0.000000000000000000e+00
Cu 2.142750671863893341e+00 5.968149009561498630e-01 0.000000000000000000e+00
Cu 2.143111262670510886e+00 6.829421697663898838e-01 0.000000000000000000e+00
Cu 2.143034173264443787e+00 7.697459111219485672e-01 0.000000000000000000e+00
Cu 2.142916492884372914e+00 8.571200406119402482e-01 0.000000000000000000e+00
Cu 2.273194189560977740e+00 8.078568007521390315e-02 0.000000000000000000e+00
Cu 2.275769102825524914e+00 1.674819980436478561e-01 0.000000000000000000e+00
Cu 2.279098274110321398e+00 2.535615475933671314e-01 0.000000000000000000e+00
Cu 2.282268062418277399e+00 3.392490408597549911e-01 0.000000000000000000e+00
Cu 2.284696063866142435e+00 4.249549521183799694e-01 0.000000000000000000e+00
Cu 2.286199026457517380e+00 5.108204101907343198e-01 0.000000000000000000e+00
Cu 2.286653621103960088e+00 5.967827575124351469e-01 0.000000000000000000e+00
Cu 2.286020463856804685e+00 6.829473307414029026e-01 0.000000000000000000e+00
Cu 2.284730712207019288e+00 7.696576249532072200e-01 0.000000000000000000e+00
Cu 2.283616627305152580e+00 8.570529875269989883e-01 0.000000000000000000e+00
Cu 2.414530827786793399e+00 7.811762264349259022e-02 0.000000000000000000e+00
Cu 2.418766264926402343e+00 1.652220350932489534e-01 0.000000000000000000e+00
Cu 2.423605652533760146e+00 2.513219179701849937e-01 0.000000000000000000e+00
Cu 2.427383410301891420e+00 3.373995472689217956e-01 0.000000000000000000e+00
Cu 2.429779951466914945e+00 4.239556084380918799e-01 0.000000000000000000e+00
Cu 2.431119921450465959e+00 5.107154278326937469e-01 0.000000000000000000e+00
Cu 2.431293668147328724e+00 5.974853047979734599e-01 0.000000000000000000e+00
Cu 2.429784457570280498e+00 6.839558472977496084e-01 0.000000000000000000e+00
Cu 2.426759918657208637e+00 7.705500269664636859e-01 0.000000000000000000e+00
Cu 2.423820416430642055e+00 8.581693786252309053e-01 0.000000000000000000e+00
Cu 2.553544706968544631e+00 7.306600664502012343e-02 0.000000000000000000e+00
Cu 2.561947249993116849e+00 1.607776509270978371e-01 0.000000000000000000e+00
Cu 2.569007904540897780e+00 2.471879234672171577e-01 0.000000000000000000e+00
Cu 2.572654602495670240e+00 3.348354057680143492e-01 0.000000000000000000e+00
Cu 2.575083103025761488e+00 4.227302848732227836e-01 0.000000000000000000e+00
Cu 2.576329716542492765e+00 5.107690154492943169e-01 0.000000000000000000e+00
Cu 2.576302345735455024e+00 5.988765279961359989e-01 0.000000000000000000e+00
Cu 2.574775064457013318e+00 6.868881701881566215e-01 0.000000000000000000e+00
Cu 2.569410467917716989e+00 7.737540535211571147e-01 0.000000000000000000e+00
Cu 2.562174129412694956e+00 8.618564601726902419e-01 0.000000000000000000e+00
Cu 2.685141918575032705e+00 5.859004370456188937e-02 0.000000000000000000e+00
Cu 2.707745595214911649e+00 1.507126140763987432e-01 0.000000000000000000e+00
Cu 2.713892803179813740e+00 2.420110512530546931e-01 0.000000000000000000e+00
Cu 2.718116910458523439e+00 3.319666291788304635e-01 0.000000000000000000e+00
Cu 2.720491469272197538e+00 4.213561540923572712e-01 0.000000000000000000e+00
Cu 2.721693602912951260e+00 5.107053902232968623e-01 0.000000000000000000e+00
Cu 2.721638048845157698e+00 6.003596788619925961e-01 0.000000000000000000e+00
Cu 2.719500344137699699e+00 6.907897652448927728e-01 0.000000000000000000e+00
Cu 2.715035697738061415e+00 7.826204538283644263e-01 0.000000000000000000e+00
Cu 2.693628441603716173e+00 8.752859330984288366e-01 0.000000000000000000e+00
