200

Cu 0.000000000000000000e+00 6.510028708479194404e-02 0.000000000000000000e+00
Cu 0.000000000000000000e+00 1.571009493657789524e-01 0.000000000000000000e+00
Cu 0.000000000000000000e+00 2.470570341803763892e-01 0.000000000000000000e+00
Cu 0.000000000000000000e+00 3.360591607735144426e-01 0.000000000000000000e+00
Cu 0.000000000000000000e+00 4.247372432830133770e-01 0.000000000000000000e+00
Cu 0.000000000000000000e+00 5.135229300475412373e-01 0.000000000000000000e+00
Cu 0.000000000000000000e+00 6.028173000951121407e-01 0.000000000000000000e+00
Cu 0.000000000000000000e+00 6.929842557268139913e-01 0.000000000000000000e+00
Cu 0.000000000000000000e+00 7.844869163575659554e-01 0.000000000000000000e+00
Cu 0.000000000000000000e+00 8.780933290871641983e-01 0.000000000000000000e+00
Cu 1.423935809310612755e-01 7.207772734173475970e-02 0.000000000000000000e+00
Cu 1.406723737960321186e-01 1.596895846397712593e-01 0.000000000000000000e+00
Cu 1.405288699416256948e-01 2.483130843257836673e-01 0.000000000000000000e+00
Cu 1.402676769723791850e-01 3.367850591452143383e-01 0.000000000000000000e+00
Cu 1.398111626893719095e-01 4.250752454692939275e-01 0.000000000000000000e+00
Cu 1.391025930438329616e-01 5.134701675518831276e-01 0.000000000000000000e+00
Cu 1.382134311770877866e-01 6.023313310398076270e-01 0.000000000000000000e+00
Cu 1.373214141490103901e-01 6.919559177899357039e-01 0.000000000000000000e+00
Cu 1.365989002676468445e-01 7.822667056253502782e-01 0.000000000000000000e+00
Cu 1.376633051263798924e-01 8.720093147341287931e-01 0.000000000000000000e+00
Cu 2.839546734832907871e-01 7.581252836981523802e-02 0.000000000000000000e+00
Cu 2.824222640464312817e-01 1.631006658587917379e-01 0.000000000000000000e+00
Cu 2.815439777003487798e-01 2.506828948346649932e-01 0.000000000000000000e+00
Cu 2.809758246523975100e-01 3.384927547867589981e-01 0.000000000000000000e+00
Cu 2.800933894761759024e-01 4.262257879707949670e-01 0.000000000000000000e+00
Cu 2.787147559547376030e-01 5.139507396778317805e-01 0.000000000000000000e+00
Cu 2.769199758420262669e-01 6.019792112279386265e-01 0.000000000000000000e+00
Cu 2.750886021607907295e-01 6.906303954188353078e-01 0.000000000000000000e+00
Cu 2.740401672893499341e-01 7.798271745465242821e-01 0.000000000000000000e+00
Cu 2.742637267061943662e-01 8.694120014954535014e-01 0.000000000000000000e+00
Cu 4.252667234386466877e-01 7.878422588813073502e-02 0.000000000000000000e+00
Cu 4.239254101940518882e-01 1.661093243792007568e-01 0.000000000000000000e+00
Cu 4.229690642098242193e-01 2.535082056683968799e-01 0.000000000000000000e+00
Cu 4.221718093212123435e-01 3.409498977045915535e-01 0.000000000000000000e+00
Cu 4.210637184921720011e-01 4.282384031000912028e-01 0.000000000000000000e+00
Cu 4.191785481258608059e-01 5.152320535041162719e-01 0.000000000000000000e+00
Cu 4.164244469358394096e-01 6.021663422771716956e-01 0.000000000000000000e+00
Cu 4.133486534766798726e-01 6.896283465696398940e-01 0.000000000000000000e+00
Cu 4.109263286041726637e-01 7.782342232253148806e-01 0.000000000000000000e+00
Cu 4.099808838768126962e-01 8.680499879618357451e-01 0.000000000000000000e+00
Cu 5.663639459081185601e-01 8.138482934807925173e-02 0.000000000000000000e+00
Cu 5.652301437835164366e-01 1.688233977792157059e-01 0.000000000000000000e+00
Cu 5.644143896968749630e-01 2.563237827019292925e-01 0.000000000000000000e+00
Cu 5.636927899022710076e-01 3.438224082568832052e-01 0.000000000000000000e+00
Cu 5.627200335020212663e-01 4.311130815406459260e-01 0.000000000000000000e+00
Cu 5.607423793423484959e-01 5.177314418614108460e-01 0.000000000000000000e+00
Cu 5.571485260914602611e-01 6.036012507036454533e-01 0.000000000000000000e+00
Cu 5.521277956779415685e-01 6.896019911516776402e-01 0.000000000000000000e+00
Cu 5.471196159673565873e-01 7.773457979855481481e-01 0.000000000000000000e+00
Cu 5.440902534437142002e-01 8.676435681910272812e-01 0.000000000000000000e+00
Cu 7.072639022082580773e-01 8.361100867236341549e-02 0.000000000000000000e+00
Cu 7.063693313007903818e-01 1.711759201038748901e-01 0.000000000000000000e+00
Cu 7.057603797711607951e-01 2.588762165474892130e-01 0.000000000000000000e+00
Cu 7.052934567901900653e-01 3.467027551895556226e-01 0.000000000000000000e+00
Cu 7.046371744727193409e-01 4.344848154233399984e-01 0.000000000000000000e+00
Cu 7.034529259872972506e-01 5.218072216420932552e-01 0.000000000000000000e+00
Cu 6.996219148895754802e-01 6.073067423825746491e-01 0.000000000000000000e+00
Cu 6.923093676930546225e-01 6.916241048824611770e-01 0.000000000000000000e+00
Cu 6.826130221866105741e-01 7.776691151958601278e-01 0.000000000000000000e+00
Cu 6.747649385943693678e-01 8.688047943207385382e-01 0.000000000000000000e+00
Cu 8.480220443412888054e-01 8.536668166209965269e-02 0.000000000000000000e+00
Cu 8.473855442440568764e-01 1.730203071076093224e-01 0.000000000000000000e+00
Cu 8.469913283757055655e-01 2.609037939806865825e-01 0.000000000000000000e+00
Cu 8.467352845181238541e-01 3.491009239622969718e-01 0.000000000000000000e+00
Cu 8.465627687960347592e-01 4.376452698570739708e-01 0.000000000000000000e+00
Cu 8.458560501534468923e-01 5.263632997040083028e-01 0.000000000000000000e+00
Cu 8.449835196200328191e-01 6.147645326506061547e-01 0.000000000000000000e+00
Cu 8.351188023667530658e-01 6.976815368713126242e-01 0.000000000000000000e+00
Cu 8.181555540608272947e-01 7.820172446815301104e-01 0.000000000000000000e+00
Cu 7.973181841692468241e-01 8.748839854314079956e-01 0.000000000000000000e+00
Cu 9.887402133496314693e-01 8.656088630238550907e-02 0.000000000000000000e+00
Cu 9.883726746278453934e-01 1.742271510795130873e-01 0.000000000000000000e+00
Cu 9.881491830133360965e-01 2.621794074789415840e-01 0.000000000000000000e+00
Cu 9.880779351331914206e-01 3.505758922107107267e-01 0.000000000000000000e+00
Cu 9.880386911836254171e-01 4.396034014538414691e-01 0.000000000000000000e+00
Cu 9.883148463229406433e-01 5.295719279602508767e-01 0.000000000000000000e+00
Cu 9.871397137412259992e-01 6.209459898724812854e-01 0.000000000000000000e+00
Cu 9.899450935698971277e-01 7.152267719050290351e-01 0.000000000000000000e+00
Cu 9.459074082268560391e-01 7.964879647421533315e-01 0.000000000000000000e+00
Cu 9.044952577361039525e-01 8.970467916037109246e-01 0.000000000000000000e+00
Cu 1.129559057882294937e+00 8.715372553382680354e-02 0.000000000000000000e+00
Cu 1.129452929355023505e+00 1.747359074189996919e-01 0.000000000000000000e+00
Cu 1.129400875220392564e+00 2.625902680749552798e-01 0.000000000000000000e+00
Cu 1.129423163934050844e+00 3.508661004854147780e-01 0.000000000000000000e+00
Cu 1.129652747829016368e+00 4.397492957857686569e-01 0.000000000000000000e+00
Cu 1.129791854002795803e+00 5.295569483216048257e-01 0.000000000000000000e+00
Cu 1.131580534877578925e+00 6.207539936154761184e-01 0.000000000000000000e+00
Cu 1.129475055315106058e+00 7.148992934415404621e-01 0.000000000000000000e+00
Cu 1.174169400974238719e+00 7.955368483761260379e-01 0.000000000000000000e+00
Cu 1.216172511316302662e+00 8.955530655095238490e-01 0.000000000000000000e+00
Cu 1.270621261057468088e+00 8.717235725679078895e-02 0.000000000000000000e+00
Cu 1.270770659051191354e+00 1.745780576575994281e-01 0.000000000000000000e+00
Cu 1.270900370465138929e+00 2.621674837991463947e-01 0.000000000000000000e+00
Cu 1.271136201285445022e+00 3.499956649000164899e-01 0.000000000000000000e+00
Cu 1.271530456140872012e+00 4.380933733106591732e-01 0.000000000000000000e+00
Cu 1.272686904424006560e+00 5.263097360309723083e-01 0.000000000000000000e+00
Cu 1.274157820863049739e+00 6.142042751777102572e-01 0.000000000000000000e+00
Cu 1.284743490049039538e+00 6.965601924424166258e-01 0.000000000000000000e+00
Cu 1.302400284131641772e+00 7.802991095212402639e-01 0.000000000000000000e+00
Cu 1.323863968828693505e+00 8.725532092112551208e-01 0.000000000000000000e+00
Cu 1.412042883970858531e+00 8.671099850240722440e-02 0.000000000000000000e+00
Cu 1.412428323397749930e+00 1.738773956308578006e-01 0.000000000000000000e+00
Cu 1.412807133613384503e+00 2.610869499270708771e-01 0.000000000000000000e+00
Cu 1.413324834787118567e+00 3.482738184651106850e-01 0.000000000000000000e+00
Cu 1.414284688310544658e+00 4.352632720901917218e-01 0.000000000000000000e+00
Cu 1.415961485335962777e+00 5.217003435436253778e-01 0.000000000000000000e+00
Cu 1.420435349751289156e+00 6.062952079387258220e-01 0.000000000000000000e+00
Cu 1.428483467866557222e+00 6.897393790038844896e-01 0.000000000000000000e+00
Cu 1.438980289314918171e+00 7.749519629604624260e-01 0.000000000000000000e+00
Cu 1.447618952481878551e+00 8.652622129861329281e-01 0.000000000000000000e+00
Cu 1.553873819172972626e+00 8.591615498923337035e-02 0.000000000000000000e+00
Cu 1.554476877854676697e+00 1.728283915623810840e-01 0.000000000000000000e+00
Cu 1.555145679565975714e+00 2.596370924721730922e-01 0.000000000000000000e+00
Cu 1.556074222730312817e+00 3.461800569109290682e-01 0.000000000000000000e+00
Cu 1.557504108734476533e+00 4.322547125575086913e-01 0.000000000000000000e+00
Cu 1.560073992634909201e+00 5.175016609842707505e-01 0.000000000000000000e+00
Cu 1.564341089128809648e+00 6.019909543254385875e-01 0.000000000000000000e+00
Cu 1.570143433484729067e+00 6.867143380342562997e-01 0.000000000000000000e+00
Cu 1.576058792712996759e+00 7.733142246561994781e-01 0.000000000000000000e+00
Cu 1.580081437304803327e+00 8.625424496970415245e-01 0.000000000000000000e+00
Cu 1.696085242808919036e+00 8.495161597141386023e-02 0.000000000000000000e+00
Cu 1.696883007734617754e+00 1.716504680135616523e-01 0.000000000000000000e+00
Cu 1.697880207264116370e+00 2.581269163798611266e-01 0.000000000000000000e+00
Cu 1.699198240948299521e+00 3.442003654708904459e-01 0.000000000000000000e+00
Cu 1.701050939774494397e+00 4.297343886215714281e-01 0.000000000000000000e+00
Cu 1.703679930819732569e+00 5.147698569564406190e-01 0.000000000000000000e+00
Cu 1.707124455143503639e+00 5.997240994427127658e-01 0.000000000000000000e+00
Cu 1.710952411707949539e+00 6.853901227583103495e-01 0.000000000000000000e+00
Cu 1.714342811528626331e+00 7.724885446965877867e-01 0.000000000000000000e+00
Cu 1.716479308852797869e+00 8.609906692511248849e-01 0.000000000000000000e+00
Cu 1.838563622507678019e+00 8.394811764438647739e-02 0.000000000000000000e+00
Cu 1.839558440138270745e+00 1.705184454667812433e-01 0.000000000000000000e+00
Cu 1.840900857245364675e+00 2.567900378170429043e-01 0.000000000000000000e+00
Cu 1.842584394241201240e+00 3.426070324843041304e-01 0.000000000000000000e+00
Cu 1.844613744364377750e+00 4.279778638793435008e-01 0.000000000000000000e+00
Cu 1.846958220940622564e+00 5.131299632739618755e-01 0.000000000000000000e+00
Cu 1.849465639845407239e+00 5.985142346879840369e-01 0.000000000000000000e+00
Cu 1.851836627119619383e+00 6.846501349711910933e-01 0.000000000000000000e+00
Cu 1.853729964971335686e+00 7.718256218621075693e-01 0.000000000000000000e+00
Cu 1.854904685387647634e+00 8.598503671442645491e-01 0.000000000000000000e+00
Cu 1.981127528802608895e+00 8.294575295293916961e-02 0.000000000000000000e+00
Cu 1.982375428304501863e+00 1.694996971268349362e-01 0.000000000000000000e+00
Cu 1.984123977764853164e+00 2.556973140902192854e-01 0.000000000000000000e+00
Cu 1.986159616645452042e+00 3.414389220411930825e-01 0.000000000000000000e+00
Cu 1.988266109012323923e+00 4.268371936451879622e-01 0.000000000000000000e+00
Cu 1.990236296549827033e+00 5.121733837799368194e-01 0.000000000000000000e+00
Cu 1.991896676642191055e+00 5.978238107055190431e-01 0.000000000000000000e+00
Cu 1.993141930765621739e+00 6.841334168504031865e-01 0.000000000000000000e+00
Cu 1.993965223618499705e+00 7.712463515137712999e-01 0.000000000000000000e+00
Cu 1.994460444721681824e+00 8.589753488382166902e-01 0.000000000000000000e+00
Cu 2.123534841119325112e+00 8.184503940004834999e-02 0.000000000000000000e+00
Cu 2.125201491624904016e+00 1.685060474651193518e-01 0.000000000000000000e+00
Cu 2.127513047258413170e+00 2.547287347236090738e-01 0.000000000000000000e+00
Cu 2.129980889326461124e+00 3.405042453328940844e-01 0.000000000000000000e+00
Cu 2.132181812237124774e+00 4.260556126670262955e-01 0.000000000000000000e+00
Cu 2.133817793537356788e+00 5.116411970945418108e-01 0.000000000000000000e+00
Cu 2.134740935998384881e+00 5.974881069568085401e-01 0.000000000000000000e+00
Cu 2.134989774113657202e+00 6.838365970568912600e-01 0.000000000000000000e+00
Cu 2.134812607719930533e+00 7.708579898932401697e-01 0.000000000000000000e+00
Cu 2.134606140292471199e+00 8.584469198082266272e-01 0.000000000000000000e+00
Cu 2.265460061037169126e+00 8.035488193263881640e-02 0.000000000000000000e+00
Cu 2.267918983478402151e+00 1.672565012254344785e-01 0.000000000000000000e+00
Cu 2.271127649381572411e+00 2.535405381031367034e-01 0.000000000000000000e+00
Cu 2.274175725888527122e+00 3.394356463622680842e-01 0.000000000000000000e+00
Cu 2.276482599439438204e+00 4.253530194046070134e-01 0.000000000000000000e+00
Cu 2.277866521007855471e+00 5.114329732204743184e-01 0.000000000000000000e+00
Cu 2.278207050035793824e+00 5.976117737576334132e-01 0.000000000000000000e+00
Cu 2.277468354716542631e+00 6.839926339294045698e-01 0.000000000000000000e+00
Cu 2.276082146834102815e+00 7.709172582184833367e-01 0.000000000000000000e+00
Cu 2.274877020593280896e+00 8.585245425208234415e-01 0.000000000000000000e+00
Cu 2.406361558357749342e+00 7.787241347785352208e-02 0.000000000000000000e+00
Cu 2.410484390277763289e+00 1.651761056411280015e-01 0.000000000000000000e+00
Cu 2.415198456610974986e+00 2.514750282228828127e-01 0.000000000000000000e+00
Cu 2.418847557746936161e+00 3.377555468379378478e-01 0.000000000000000000e+00
Cu 2.421119301813314362e+00 4.245163201943702447e-01 0.000000000000000000e+00
Cu 2.422337242095698784e+00 5.114839783497758807e-01 0.000000000000000000e+00
Cu 2.422395400236211582e+00 5.984625265567683483e-01 0.000000000000000000e+00
Cu 2.420785336336068294e+00 6.851422183600220928e-01 0.000000000000000000e+00
Cu 2.417673084775408654e+00 7.719423286114244220e-01 0.000000000000000000e+00
Cu 2.414650179318729606e+00 8.597636588853826423e-01 0.000000000000000000e+00
Cu 2.544963207041349484e+00 7.298669183397268889e-02 0.000000000000000000e+00
Cu 2.553251404720715545e+00 1.608869797429450521e-01 0.000000000000000000e+00
Cu 2.560164553889245909e+00 2.474985361606668322e-01 0.000000000000000000e+00
Cu 2.563681970804711607e+00 3.353410672033038109e-01 0.000000000000000000e+00
Cu 2.565978322571884185e+00 4.234357928166025964e-01 0.000000000000000000e+00
Cu 2.567099240176565988e+00 5.116754959017451032e-01 0.000000000000000000e+00
Cu 2.566956580405178379e+00 5.999833078718392887e-01 0.000000000000000000e+00
Cu 2.565323699011062608e+00 6.881917687209093693e-01 0.000000000000000000e+00
Cu 2.559895905234144120e+00 7.752577931246327214e-01 0.000000000000000000e+00
Cu 2.552593571610987322e+00 8.635465676642326560e-01 0.000000000000000000e+00
Cu 2.676256894164151579e+00 5.866798216612736233e-02 0.000000000000000000e+00
Cu 2.698606057893813137e+00 1.509756952579512090e-01 0.000000000000000000e+00
Cu 2.704626403949828450e+00 2.424506639317180468e-01 0.000000000000000000e+00
Cu 2.708705205910959091e+00 3.325982921360259303e-01 0.000000000000000000e+00
Cu 2.710946252555705094e+00 4.221839466803131158e-01 0.000000000000000000e+00
Cu 2.712019801174315958e+00 5.117288492346707685e-01 0.000000000000000000e+00
Cu 2.711844324434826703e+00 6.015750846088691040e-01 0.000000000000000000e+00
Cu 2.709610187822289795e+00 6.921877450993302316e-01 0.000000000000000000e+00
Cu 2.705051244139923927e+00 7.841848749358043547e-01 0.000000000000000000e+00
Cu 2.683721343991026131e+00 8.770073319851040550e-01 0.000000000000000000e+00
