200

Cu 0.000000000000000000e+00 4.208880823476740529e-02 0.000000000000000000e+00
Cu 0.000000000000000000e+00 1.392399959878390103e-01 0.000000000000000000e+00
Cu 0.000000000000000000e+00 2.351929973657977957e-01 0.000000000000000000e+00
Cu 0.000000000000000000e+00 3.306033266429481698e-01 0.000000000000000000e+00
Cu 0.000000000000000000e+00 4.258277874603422219e-01 0.000000000000000000e+00
Cu 0.000000000000000000e+00 5.210477962518025308e-01 0.000000000000000000e+00
Cu 0.000000000000000000e+00 6.164095891132246319e-01 0.000000000000000000e+00
Cu 0.000000000000000000e+00 7.120761323564465117e-01 0.000000000000000000e+00
Cu 0.000000000000000000e+00 8.083664260703370408e-01 0.000000000000000000e+00
Cu 0.000000000000000000e+00 9.058760020882934416e-01 0.000000000000000000e+00
Cu 1.283011808443712265e-01 4.664168920652518591e-02 0.000000000000000000e+00
Cu 1.270632389578100208e-01 1.408127855837872089e-01 0.000000000000000000e+00
Cu 1.270084666058538259e-01 2.358514803809921567e-01 0.000000000000000000e+00
Cu 1.269524272035360835e-01 3.309208142058696622e-01 0.000000000000000000e+00
Cu 1.268604644230056089e-01 4.259395906003834442e-01 0.000000000000000000e+00
Cu 1.267207088425915118e-01 5.209890984400648017e-01 0.000000000000000000e+00
Cu 1.265438054860766603e-01 6.161543403261394714e-01 0.000000000000000000e+00
Cu 1.263585518050879541e-01 7.114981573941187021e-01 0.000000000000000000e+00
Cu 1.262097567033176604e-01 8.069183543732444397e-01 0.000000000000000000e+00
Cu 1.272459245009315842e-01 9.015800945682529433e-01 0.000000000000000000e+00
Cu 2.560423470818152802e-01 4.878924359937535787e-02 0.000000000000000000e+00
Cu 2.550015023339055054e-01 1.427740175749994400e-01 0.000000000000000000e+00
Cu 2.544310528795770132e-01 2.370212835589335654e-01 0.000000000000000000e+00
Cu 2.541955870880403534e-01 3.315882484382007278e-01 0.000000000000000000e+00
Cu 2.539564163109261363e-01 4.262532083372200242e-01 0.000000000000000000e+00
Cu 2.536677211417104894e-01 5.209846694486250929e-01 0.000000000000000000e+00
Cu 2.533580420842227454e-01 6.157981445872848791e-01 0.000000000000000000e+00
Cu 2.531072821415754626e-01 7.106414127582281193e-01 0.000000000000000000e+00
Cu 2.532467638449879543e-01 8.052906233989144402e-01 0.000000000000000000e+00
Cu 2.539102910404839597e-01 8.997964312150068533e-01 0.000000000000000000e+00
Cu 3.836873617481443843e-01 5.031051052046227323e-02 0.000000000000000000e+00
Cu 3.828419332024484700e-01 1.442624691337955622e-01 0.000000000000000000e+00
Cu 3.822136036687974192e-01 2.383016758620694064e-01 0.000000000000000000e+00
Cu 3.817901902369513767e-01 3.324875679987757127e-01 0.000000000000000000e+00
Cu 3.814098772041154550e-01 4.267641084957326525e-01 0.000000000000000000e+00
Cu 3.809585475735610682e-01 5.210800014791495682e-01 0.000000000000000000e+00
Cu 3.805063718265437878e-01 6.154657719167534458e-01 0.000000000000000000e+00
Cu 3.802028416646722198e-01 7.098856341024638583e-01 0.000000000000000000e+00
Cu 3.801567287893417024e-01 8.043164481472232508e-01 0.000000000000000000e+00
Cu 3.803997684915076949e-01 8.988243132657677270e-01 0.000000000000000000e+00
Cu 5.113392276759107791e-01 5.152758849970386773e-02 0.000000000000000000e+00
Cu 5.106492738056586100e-01 1.454589882139217805e-01 0.000000000000000000e+00
Cu 5.100964560927090385e-01 2.394319838507417142e-01 0.000000000000000000e+00
Cu 5.096647974181018892e-01 3.334574906565764274e-01 0.000000000000000000e+00
Cu 5.092741760916200677e-01 4.274870643865413267e-01 0.000000000000000000e+00
Cu 5.086919178371065442e-01 5.213796360490356996e-01 0.000000000000000000e+00
Cu 5.079739104217346757e-01 6.152858551308871826e-01 0.000000000000000000e+00
Cu 5.073957267581510333e-01 7.094449411440284514e-01 0.000000000000000000e+00
Cu 5.069837350368350259e-01 8.038433452003603819e-01 0.000000000000000000e+00
Cu 5.067352643912753640e-01 8.984239619044075420e-01 0.000000000000000000e+00
Cu 6.390435363902978727e-01 5.253486691509935691e-02 0.000000000000000000e+00
Cu 6.384871441784920609e-01 1.464339238566411128e-01 0.000000000000000000e+00
Cu 6.380397910718768051e-01 2.403745771261261988e-01 0.000000000000000000e+00
Cu 6.377019210656863502e-01 3.343579322766134787e-01 0.000000000000000000e+00
Cu 6.373994722083140552e-01 4.283286110397143687e-01 0.000000000000000000e+00
Cu 6.370513769168955065e-01 5.221507530862999902e-01 0.000000000000000000e+00
Cu 6.358719381203892240e-01 6.153976422264929580e-01 0.000000000000000000e+00
Cu 6.345464267516691681e-01 7.091633987409635687e-01 0.000000000000000000e+00
Cu 6.336763436998866794e-01 8.038733860245488305e-01 0.000000000000000000e+00
Cu 6.328507003364164385e-01 8.987685401060157009e-01 0.000000000000000000e+00
Cu 7.668443055224342109e-01 5.336289982758778139e-02 0.000000000000000000e+00
Cu 7.664033167221266929e-01 1.472071064266165796e-01 0.000000000000000000e+00
Cu 7.660578928538488430e-01 2.411069715410762704e-01 0.000000000000000000e+00
Cu 7.658142345615497337e-01 3.350760089930570618e-01 0.000000000000000000e+00
Cu 7.656852077537749102e-01 4.291095338625942057e-01 0.000000000000000000e+00
Cu 7.654749591179990098e-01 5.231197412482461173e-01 0.000000000000000000e+00
Cu 7.653868455383080471e-01 6.169124519523305761e-01 0.000000000000000000e+00
Cu 7.616010075975540028e-01 7.085253369737077866e-01 0.000000000000000000e+00
Cu 7.592207221005720097e-01 8.041477623681035913e-01 0.000000000000000000e+00
Cu 7.590928623164910904e-01 9.003945813238508622e-01 0.000000000000000000e+00
Cu 8.947914972333186334e-01 5.402936072465253092e-02 0.000000000000000000e+00
Cu 8.944495331915692793e-01 1.477893100845299457e-01 0.000000000000000000e+00
Cu 8.941835035257583719e-01 2.416137876219985603e-01 0.000000000000000000e+00
Cu 8.940236074142635658e-01 3.355305200702385915e-01 0.000000000000000000e+00
Cu 8.939564295998873034e-01 4.295744199258879625e-01 0.000000000000000000e+00
Cu 8.941011947516276370e-01 5.238084306563401960e-01 0.000000000000000000e+00
Cu 8.937645051777518557e-01 6.182919716540201671e-01 0.000000000000000000e+00
Cu 8.955484912148485854e-01 7.133451811301603218e-01 0.000000000000000000e+00
Cu 8.762702629612243443e-01 8.016366822378399037e-01 0.000000000000000000e+00
Cu 8.897274267038952633e-01 8.988515679153158411e-01 0.000000000000000000e+00
Cu 1.022939726537965610e+00 5.455549391581777929e-02 0.000000000000000000e+00
Cu 1.022680268812404814e+00 1.481991778077085542e-01 0.000000000000000000e+00
Cu 1.022483343702655478e+00 2.419010112419131553e-01 0.000000000000000000e+00
Cu 1.022374306461728555e+00 3.356834819757892330e-01 0.000000000000000000e+00
Cu 1.022410346040181661e+00 4.295819164876098495e-01 0.000000000000000000e+00
Cu 1.022492364636293338e+00 5.236638568714394593e-01 0.000000000000000000e+00
Cu 1.023308742905252755e+00 6.179941372595131321e-01 0.000000000000000000e+00
Cu 1.022200677601277086e+00 7.129167983842074063e-01 0.000000000000000000e+00
Cu 1.042253622362544929e+00 8.008858136451303400e-01 0.000000000000000000e+00
Cu 1.029751450623223930e+00 8.980950713851609812e-01 0.000000000000000000e+00
Cu 1.151339372388982651e+00 5.496987883664011115e-02 0.000000000000000000e+00
Cu 1.151151934532715693e+00 1.484684071747109646e-01 0.000000000000000000e+00
Cu 1.151022098907910962e+00 2.419991433323610275e-01 0.000000000000000000e+00
Cu 1.150995263176705530e+00 3.355573277097609886e-01 0.000000000000000000e+00
Cu 1.151096656623142644e+00 4.291385075242506453e-01 0.000000000000000000e+00
Cu 1.151542002158747025e+00 5.226738944357300909e-01 0.000000000000000000e+00
Cu 1.152104574156164185e+00 6.159990879583461254e-01 0.000000000000000000e+00
Cu 1.156573533570582679e+00 7.071432376415395238e-01 0.000000000000000000e+00
Cu 1.159801074141284083e+00 8.023181923997081411e-01 0.000000000000000000e+00
Cu 1.160931800579431572e+00 8.981520326073707539e-01 0.000000000000000000e+00
Cu 1.280027945903765119e+00 5.530774938999891144e-02 0.000000000000000000e+00
Cu 1.279907133102561545e+00 1.486420066770730020e-01 0.000000000000000000e+00
Cu 1.279865977000815169e+00 2.419645561925045374e-01 0.000000000000000000e+00
Cu 1.279944783455665647e+00 3.352359540513193958e-01 0.000000000000000000e+00
Cu 1.280240487477158240e+00 4.284005844965715903e-01 0.000000000000000000e+00
Cu 1.280831832911034196e+00 5.213695185662392539e-01 0.000000000000000000e+00
Cu 1.282497112111345761e+00 6.137796157953651077e-01 0.000000000000000000e+00
Cu 1.284531638174015500e+00 7.067676958032276247e-01 0.000000000000000000e+00
Cu 1.286311219171161424e+00 8.007710192553298967e-01 0.000000000000000000e+00
Cu 1.288167349895639191e+00 8.949943703942723205e-01 0.000000000000000000e+00
Cu 1.409017629514412784e+00 5.560682711457166916e-02 0.000000000000000000e+00
Cu 1.408969233843759161e+00 1.487741647366531694e-01 0.000000000000000000e+00
Cu 1.409043866740512962e+00 2.418761514841382410e-01 0.000000000000000000e+00
Cu 1.409278073950429366e+00 3.348447141468591792e-01 0.000000000000000000e+00
Cu 1.409726269256581066e+00 4.276350705222686233e-01 0.000000000000000000e+00
Cu 1.410576719554475389e+00 5.202002168751422850e-01 0.000000000000000000e+00
Cu 1.411765055480057374e+00 6.128239085601059344e-01 0.000000000000000000e+00
Cu 1.413046685816645720e+00 7.058452514186532856e-01 0.000000000000000000e+00
Cu 1.414395364300341296e+00 7.992611199788441922e-01 0.000000000000000000e+00
Cu 1.415769134559227149e+00 8.929411256012338427e-01 0.000000000000000000e+00
Cu 1.538286861605049793e+00 5.589641321065993290e-02 0.000000000000000000e+00
Cu 1.538331135888021839e+00 1.489157839099567726e-01 0.000000000000000000e+00
Cu 1.538564655621007304e+00 2.418128875472683459e-01 0.000000000000000000e+00
Cu 1.538970524732936607e+00 3.345133053560551684e-01 0.000000000000000000e+00
Cu 1.539561921896894781e+00 4.270102227574859022e-01 0.000000000000000000e+00
Cu 1.540318127679577431e+00 5.194286139038787331e-01 0.000000000000000000e+00
Cu 1.541160886187052270e+00 6.119826646922277291e-01 0.000000000000000000e+00
Cu 1.542053667052935451e+00 7.048184553935926688e-01 0.000000000000000000e+00
Cu 1.543010960081486971e+00 7.979682467723764328e-01 0.000000000000000000e+00
Cu 1.544008778791053915e+00 8.913713383349768371e-01 0.000000000000000000e+00
Cu 1.667773551562635959e+00 5.617824621041341698e-02 0.000000000000000000e+00
Cu 1.667959984672988671e+00 1.490897794418439282e-01 0.000000000000000000e+00
Cu 1.668413590923110812e+00 2.418199959371638841e-01 0.000000000000000000e+00
Cu 1.669032848091215770e+00 3.342990587588738904e-01 0.000000000000000000e+00
Cu 1.669712205565541785e+00 4.265770209949782954e-01 0.000000000000000000e+00
Cu 1.670354858102390150e+00 5.188075868209564012e-01 0.000000000000000000e+00
Cu 1.670920354518576012e+00 6.111751475884490414e-01 0.000000000000000000e+00
Cu 1.671447616226065191e+00 7.038176642658293680e-01 0.000000000000000000e+00
Cu 1.672018438160737919e+00 7.967849787616837487e-01 0.000000000000000000e+00
Cu 1.672712788492745073e+00 8.900083472532441808e-01 0.000000000000000000e+00
Cu 1.797374108291336370e+00 5.640011170330271745e-02 0.000000000000000000e+00
Cu 1.797801483774702724e+00 1.492612186018779930e-01 0.000000000000000000e+00
Cu 1.798585363541751470e+00 2.418664289326728500e-01 0.000000000000000000e+00
Cu 1.799495968102458932e+00 3.341659145411260412e-01 0.000000000000000000e+00
Cu 1.800308397597535137e+00 4.262483204144658644e-01 0.000000000000000000e+00
Cu 1.800863041809300791e+00 5.182797663414084877e-01 0.000000000000000000e+00
Cu 1.801133621953371566e+00 6.104432634645831079e-01 0.000000000000000000e+00
Cu 1.801232609723453670e+00 7.028942036205750865e-01 0.000000000000000000e+00
Cu 1.801351403551644026e+00 7.957089866889820451e-01 0.000000000000000000e+00
Cu 1.801699250913895600e+00 8.888251789115955148e-01 0.000000000000000000e+00
Cu 1.926937791815620749e+00 5.642569596137785026e-02 0.000000000000000000e+00
Cu 1.927793332758114264e+00 1.493056403235306917e-01 0.000000000000000000e+00
Cu 1.929097018021804999e+00 2.418135729960565472e-01 0.000000000000000000e+00
Cu 1.930436827475558781e+00 3.339641585147190561e-01 0.000000000000000000e+00
Cu 1.931456441520984280e+00 4.259290353246970584e-01 0.000000000000000000e+00
Cu 1.931946042263111618e+00 5.178691254876297556e-01 0.000000000000000000e+00
Cu 1.931884066067138139e+00 6.098993730097289623e-01 0.000000000000000000e+00
Cu 1.931440898970021802e+00 7.021737427266022680e-01 0.000000000000000000e+00
Cu 1.930942733124720423e+00 7.948522501449623023e-01 0.000000000000000000e+00
Cu 1.930781109503955095e+00 8.879355846687396747e-01 0.000000000000000000e+00
Cu 2.056239945531283198e+00 5.598992202117900052e-02 0.000000000000000000e+00
Cu 2.057883412976584836e+00 1.489675115117995441e-01 0.000000000000000000e+00
Cu 2.060024375971075905e+00 2.413676628738270213e-01 0.000000000000000000e+00
Cu 2.061937549851964313e+00 3.334307964753156495e-01 0.000000000000000000e+00
Cu 2.063167110040434071e+00 4.255013447634921619e-01 0.000000000000000000e+00
Cu 2.063611635536195976e+00 5.176487751204297272e-01 0.000000000000000000e+00
Cu 2.063250873300645161e+00 6.097696033232337109e-01 0.000000000000000000e+00
Cu 2.062149112664723560e+00 7.019281466896867272e-01 0.000000000000000000e+00
Cu 2.060735350678605027e+00 7.944596989647546570e-01 0.000000000000000000e+00
Cu 2.059717630911444886e+00 8.875937480646776123e-01 0.000000000000000000e+00
Cu 2.184882009901941480e+00 5.458322851398805797e-02 0.000000000000000000e+00
Cu 2.188095891821625116e+00 1.477433215166000513e-01 0.000000000000000000e+00
Cu 2.191562806636957905e+00 2.399843520847223244e-01 0.000000000000000000e+00
Cu 2.194004724189351663e+00 3.322390512060036105e-01 0.000000000000000000e+00
Cu 2.195291770092003603e+00 4.248836552004801592e-01 0.000000000000000000e+00
Cu 2.195708479294708138e+00 5.176637637014709359e-01 0.000000000000000000e+00
Cu 2.195234671153577732e+00 6.103489998293446517e-01 0.000000000000000000e+00
Cu 2.193547986075238931e+00 7.026801983121930828e-01 0.000000000000000000e+00
Cu 2.190748432749765939e+00 7.950231991494639550e-01 0.000000000000000000e+00
Cu 2.188102128849002348e+00 8.883010128031879615e-01 0.000000000000000000e+00
Cu 2.311938017565126735e+00 5.098200627767010551e-02 0.000000000000000000e+00
Cu 2.318836933631552633e+00 1.443996982807220775e-01 0.000000000000000000e+00
Cu 2.323901590142616325e+00 2.369072936170238397e-01 0.000000000000000000e+00
Cu 2.326313695421915906e+00 3.303752415907984519e-01 0.000000000000000000e+00
Cu 2.327612580744190307e+00 4.240861397702812563e-01 0.000000000000000000e+00
Cu 2.328014200175966941e+00 5.178676226838351271e-01 0.000000000000000000e+00
Cu 2.327500113953151484e+00 6.116209194292537843e-01 0.000000000000000000e+00
Cu 2.325816234989288578e+00 7.051635991931349823e-01 0.000000000000000000e+00
Cu 2.321386487051537273e+00 7.977681576884555481e-01 0.000000000000000000e+00
Cu 2.315007851717218124e+00 8.912806500955773314e-01 0.000000000000000000e+00
Cu 2.434422358578747225e+00 3.930335422110296101e-02 0.000000000000000000e+00
Cu 2.451205947738697599e+00 1.364740469855570404e-01 0.000000000000000000e+00
Cu 2.455969673197392122e+00 2.328633605015628383e-01 0.000000000000000000e+00
Cu 2.458675829504899824e+00 3.282928479659353305e-01 0.000000000000000000e+00
Cu 2.459983762573220822e+00 4.232435919493380272e-01 0.000000000000000000e+00
Cu 2.460377396994712917e+00 5.180875530918663818e-01 0.000000000000000000e+00
Cu 2.459840686861280101e+00 6.130949740899872547e-01 0.000000000000000000e+00
Cu 2.457858801538917337e+00 7.086277763806442254e-01 0.000000000000000000e+00
Cu 2.453737420411383319e+00 8.051402869101635940e-01 0.000000000000000000e+00
Cu 2.437479488234492120e+00 9.024504090057429151e-01 0.000000000000000000e+00
