200

Cu 0.000000000000000000e+00 4.013198453591199089e-02 0.000000000000000000e+00
Cu 0.000000000000000000e+00 1.376575405179197853e-01 0.000000000000000000e+00
Cu 0.000000000000000000e+00 2.340406605187863309e-01 0.000000000000000000e+00
Cu 0.000000000000000000e+00 3.299062980186662219e-01 0.000000000000000000e+00
Cu 0.000000000000000000e+00 4.255955192415235011e-01 0.000000000000000000e+00
Cu 0.000000000000000000e+00 5.212812091891448896e-01 0.000000000000000000e+00
Cu 0.000000000000000000e+00 6.171024149641918255e-01 0.000000000000000000e+00
Cu 0.000000000000000000e+00 7.132144234275291650e-01 0.000000000000000000e+00
Cu 0.000000000000000000e+00 8.099221569056189729e-01 0.000000000000000000e+00
Cu 0.000000000000000000e+00 9.077934722306834070e-01 0.000000000000000000e+00
Cu 1.272780072070708035e-01 4.450893030165219838e-02 0.000000000000000000e+00
Cu 1.260724846005935873e-01 1.391690325133515260e-01 0.000000000000000000e+00
Cu 1.260147107525148580e-01 2.346735731622643650e-01 0.000000000000000000e+00
Cu 1.259591426216239984e-01 3.302118096018895610e-01 0.000000000000000000e+00
Cu 1.258697947771199588e-01 4.257035451698326090e-01 0.000000000000000000e+00
Cu 1.257354620238040066e-01 5.212256072607543977e-01 0.000000000000000000e+00
Cu 1.255661675992243986e-01 6.168582847989925178e-01 0.000000000000000000e+00
Cu 1.253891095116715093e-01 7.126605948295164916e-01 0.000000000000000000e+00
Cu 1.252496775354367542e-01 8.085325940351064666e-01 0.000000000000000000e+00
Cu 1.262572658578904328e-01 9.036673503808463348e-01 0.000000000000000000e+00
Cu 2.540138423027528125e-01 4.657621379391387040e-02 0.000000000000000000e+00
Cu 2.529948828704896568e-01 1.410634395971447907e-01 0.000000000000000000e+00
Cu 2.524344785978824834e-01 2.358038823103962567e-01 0.000000000000000000e+00
Cu 2.522018867779225459e-01 3.308569109475213432e-01 0.000000000000000000e+00
Cu 2.519691634611234687e-01 4.260071978015537164e-01 0.000000000000000000e+00
Cu 2.516914272615842774e-01 5.212228639586017342e-01 0.000000000000000000e+00
Cu 2.513960620045456174e-01 6.165169446355263094e-01 0.000000000000000000e+00
Cu 2.511601193188675030e-01 7.118365454395547687e-01 0.000000000000000000e+00
Cu 2.513031173637492177e-01 8.069642792801343667e-01 0.000000000000000000e+00
Cu 2.519531739417095739e-01 9.019543413938232446e-01 0.000000000000000000e+00
Cu 3.806553450209899658e-01 4.804893891617866009e-02 0.000000000000000000e+00
Cu 3.798244701032423842e-01 1.425051255346491685e-01 0.000000000000000000e+00
Cu 3.792061735055866634e-01 2.370458311419096076e-01 0.000000000000000000e+00
Cu 3.787893122669499513e-01 3.317294312832254621e-01 0.000000000000000000e+00
Cu 3.784181466059955978e-01 4.265026963401203908e-01 0.000000000000000000e+00
Cu 3.779831441921108204e-01 5.213158837454309191e-01 0.000000000000000000e+00
Cu 3.775530734767239549e-01 6.161967531927184938e-01 0.000000000000000000e+00
Cu 3.772710326576927953e-01 7.111075089323237730e-01 0.000000000000000000e+00
Cu 3.772380298447682301e-01 8.060249083190665909e-01 0.000000000000000000e+00
Cu 3.774814539916575007e-01 9.010158765105145129e-01 0.000000000000000000e+00
Cu 5.073057340924250758e-01 4.923326002363958426e-02 0.000000000000000000e+00
Cu 5.066241573108976048e-01 1.436685971941508710e-01 0.000000000000000000e+00
Cu 5.060780914197520186e-01 2.381448287897444949e-01 0.000000000000000000e+00
Cu 5.056526861726168276e-01 3.326725393953292587e-01 0.000000000000000000e+00
Cu 5.052700630335247300e-01 4.272044738206514092e-01 0.000000000000000000e+00
Cu 5.047078657359996834e-01 5.216051891969346599e-01 0.000000000000000000e+00
Cu 5.040222926293360661e-01 6.160214670188884911e-01 0.000000000000000000e+00
Cu 5.034801171149749788e-01 7.106815669024668658e-01 0.000000000000000000e+00
Cu 5.030989422194018790e-01 8.055681182208909163e-01 0.000000000000000000e+00
Cu 5.028678433154326610e-01 9.006258193082331553e-01 0.000000000000000000e+00
Cu 6.340111354322880421e-01 5.021942994449776765e-02 0.000000000000000000e+00
Cu 6.334573536384525694e-01 1.446209556341618019e-01 0.000000000000000000e+00
Cu 6.330125500638261737e-01 2.390638339258951695e-01 0.000000000000000000e+00
Cu 6.326772742294557439e-01 3.335487490590199333e-01 0.000000000000000000e+00
Cu 6.323816980940050181e-01 4.280219027515997365e-01 0.000000000000000000e+00
Cu 6.320425044182035323e-01 5.223496849748290316e-01 0.000000000000000000e+00
Cu 6.309130763601330516e-01 6.161248792200767488e-01 0.000000000000000000e+00
Cu 6.296500111427981716e-01 7.104063623169005748e-01 0.000000000000000000e+00
Cu 6.288372164353926985e-01 8.055956429596179413e-01 0.000000000000000000e+00
Cu 6.280550038630569043e-01 9.009554154458228048e-01 0.000000000000000000e+00
Cu 7.608161907597120743e-01 5.103682488466860373e-02 0.000000000000000000e+00
Cu 7.603723064576903834e-01 1.453814917870474011e-01 0.000000000000000000e+00
Cu 7.600246180943769359e-01 2.397812427560778170e-01 0.000000000000000000e+00
Cu 7.597802400832730507e-01 3.342488022598775199e-01 0.000000000000000000e+00
Cu 7.596505409353140337e-01 4.287790055623650343e-01 0.000000000000000000e+00
Cu 7.594530799497153373e-01 5.232872266376035197e-01 0.000000000000000000e+00
Cu 7.593576772416675835e-01 6.175791536607401211e-01 0.000000000000000000e+00
Cu 7.557467561929852584e-01 7.097824137698812708e-01 0.000000000000000000e+00
Cu 7.534549863370756384e-01 8.058565269720809887e-01 0.000000000000000000e+00
Cu 7.533980197898013653e-01 9.025075692965337515e-01 0.000000000000000000e+00
Cu 8.877712501003839352e-01 5.170300552334692462e-02 0.000000000000000000e+00
Cu 8.874209020810623905e-01 1.459613033251683512e-01 0.000000000000000000e+00
Cu 8.871483426539068518e-01 2.402833205027264663e-01 0.000000000000000000e+00
Cu 8.869828476196176537e-01 3.346953476542755546e-01 0.000000000000000000e+00
Cu 8.869141425599419426e-01 4.292307259730137048e-01 0.000000000000000000e+00
Cu 8.870499494170138721e-01 5.239493373813924881e-01 0.000000000000000000e+00
Cu 8.867507777871299623e-01 6.189088145258269114e-01 0.000000000000000000e+00
Cu 8.884086198446781157e-01 7.144017260779215173e-01 0.000000000000000000e+00
Cu 8.700080059902505214e-01 8.034342780546149809e-01 0.000000000000000000e+00
Cu 8.829389146765809215e-01 9.009981187863489449e-01 0.000000000000000000e+00
Cu 1.014930849516034073e+00 5.223906809531387446e-02 0.000000000000000000e+00
Cu 1.014657810012640216e+00 1.463791887713842554e-01 0.000000000000000000e+00
Cu 1.014449783224237622e+00 2.405769490616993800e-01 0.000000000000000000e+00
Cu 1.014332233530471861e+00 3.348535220289157732e-01 0.000000000000000000e+00
Cu 1.014358794804306241e+00 4.292426346259576864e-01 0.000000000000000000e+00
Cu 1.014441929039039847e+00 5.238085607597109394e-01 0.000000000000000000e+00
Cu 1.015216094880299957e+00 6.186143296329800201e-01 0.000000000000000000e+00
Cu 1.014233964726332982e+00 7.139742032345408607e-01 0.000000000000000000e+00
Cu 1.033415768386924949e+00 8.026904392797326038e-01 0.000000000000000000e+00
Cu 1.021447970221210033e+00 9.002422530142296653e-01 0.000000000000000000e+00
Cu 1.142345231263438565e+00 5.267288776415880031e-02 0.000000000000000000e+00
Cu 1.142139181789291857e+00 1.466661491090802683e-01 0.000000000000000000e+00
Cu 1.141994068444872834e+00 2.406919955814006140e-01 0.000000000000000000e+00
Cu 1.141953601121137307e+00 3.347452744447437789e-01 0.000000000000000000e+00
Cu 1.142044441771110641e+00 4.288210088799350728e-01 0.000000000000000000e+00
Cu 1.142468911569671564e+00 5.228529802668899773e-01 0.000000000000000000e+00
Cu 1.143034830530801571e+00 6.166753986269879473e-01 0.000000000000000000e+00
Cu 1.147328678360817200e+00 7.084083586265772503e-01 0.000000000000000000e+00
Cu 1.150471972041740232e+00 8.040322519246285715e-01 0.000000000000000000e+00
Cu 1.151540223730633583e+00 9.002667726081786670e-01 0.000000000000000000e+00
Cu 1.270051855275604602e+00 5.303828488670670610e-02 0.000000000000000000e+00
Cu 1.269907964840334191e+00 1.468654994220676413e-01 0.000000000000000000e+00
Cu 1.269846816128264777e+00 2.406825422756314337e-01 0.000000000000000000e+00
Cu 1.269908061339077188e+00 3.344503905375565966e-01 0.000000000000000000e+00
Cu 1.270184829996252374e+00 4.281149113344570600e-01 0.000000000000000000e+00
Cu 1.270759196240969890e+00 5.215881004299439683e-01 0.000000000000000000e+00
Cu 1.272370355418624532e+00 6.145247776958834285e-01 0.000000000000000000e+00
Cu 1.274342281014993805e+00 7.080252029478382170e-01 0.000000000000000000e+00
Cu 1.276067677604033390e+00 8.025024618448917124e-01 0.000000000000000000e+00
Cu 1.277889088835239662e+00 8.971832273632364130e-01 0.000000000000000000e+00
Cu 1.398063421612943502e+00 5.337103837911051640e-02 0.000000000000000000e+00
Cu 1.397988027288993740e+00 1.470290890874152712e-01 0.000000000000000000e+00
Cu 1.398038387770555779e+00 2.406241534383237457e-01 0.000000000000000000e+00
Cu 1.398249795377242588e+00 3.340893119134802358e-01 0.000000000000000000e+00
Cu 1.398676352243543253e+00 4.273805482159656055e-01 0.000000000000000000e+00
Cu 1.399497984186314659e+00 5.204543365695107893e-01 0.000000000000000000e+00
Cu 1.400650378332306101e+00 6.135878041499298607e-01 0.000000000000000000e+00
Cu 1.401896125115161595e+00 7.071067527136948305e-01 0.000000000000000000e+00
Cu 1.403216834243007805e+00 8.010033751737856145e-01 0.000000000000000000e+00
Cu 1.404579687729721194e+00 8.951501304900026934e-01 0.000000000000000000e+00
Cu 1.526359371316000635e+00 5.369846659635981595e-02 0.000000000000000000e+00
Cu 1.526373506880238651e+00 1.472054277290572588e-01 0.000000000000000000e+00
Cu 1.526578546150439974e+00 2.405928444875468364e-01 0.000000000000000000e+00
Cu 1.526957861068547473e+00 3.337873724449046953e-01 0.000000000000000000e+00
Cu 1.527523373693733699e+00 4.267829833452569943e-01 0.000000000000000000e+00
Cu 1.528253585701703887e+00 5.197028451533692861e-01 0.000000000000000000e+00
Cu 1.529071989380970331e+00 6.127555574164593732e-01 0.000000000000000000e+00
Cu 1.529945499477264992e+00 7.060814278805680466e-01 0.000000000000000000e+00
Cu 1.530892439348928047e+00 7.997101095329104403e-01 0.000000000000000000e+00
Cu 1.531892848827383746e+00 8.935833834986235402e-01 0.000000000000000000e+00
Cu 1.654879206637831057e+00 5.402083137421505310e-02 0.000000000000000000e+00
Cu 1.655032843636816464e+00 1.474157142012018085e-01 0.000000000000000000e+00
Cu 1.655454185445039972e+00 2.406318225389893206e-01 0.000000000000000000e+00
Cu 1.656043242863560971e+00 3.336004057115096733e-01 0.000000000000000000e+00
Cu 1.656695749705554777e+00 4.263709128297361595e-01 0.000000000000000000e+00
Cu 1.657316380222571883e+00 5.190945242972477836e-01 0.000000000000000000e+00
Cu 1.657866463224314746e+00 6.119519243135851383e-01 0.000000000000000000e+00
Cu 1.658386457690969262e+00 7.050777570819933837e-01 0.000000000000000000e+00
Cu 1.658958993682029259e+00 7.985206413083628663e-01 0.000000000000000000e+00
Cu 1.659664438969367106e+00 8.922138326995341373e-01 0.000000000000000000e+00
Cu 1.783521423512483883e+00 5.428550566926347576e-02 0.000000000000000000e+00
Cu 1.783913373452403306e+00 1.476243193910576346e-01 0.000000000000000000e+00
Cu 1.784660806692478729e+00 2.407094301196083808e-01 0.000000000000000000e+00
Cu 1.785537952040492593e+00 3.334919054722321752e-01 0.000000000000000000e+00
Cu 1.786323218661481471e+00 4.260591361361117380e-01 0.000000000000000000e+00
Cu 1.786859452595190856e+00 5.185750217248287219e-01 0.000000000000000000e+00
Cu 1.787121892822015834e+00 6.112201815078680545e-01 0.000000000000000000e+00
Cu 1.787223194587127084e+00 7.041479143516518047e-01 0.000000000000000000e+00
Cu 1.787353315670183740e+00 7.974337251923145908e-01 0.000000000000000000e+00
Cu 1.787718857860381760e+00 8.910169566237122751e-01 0.000000000000000000e+00
Cu 1.912138284433429147e+00 5.435726797136279653e-02 0.000000000000000000e+00
Cu 1.912954710701771477e+00 1.477074095252902675e-01 0.000000000000000000e+00
Cu 1.914216164926153541e+00 2.406875828370770576e-01 0.000000000000000000e+00
Cu 1.915518241505069996e+00 3.333132972192264232e-01 0.000000000000000000e+00
Cu 1.916509780350525549e+00 4.257542411484577238e-01 0.000000000000000000e+00
Cu 1.916983835025662053e+00 5.181695412601955431e-01 0.000000000000000000e+00
Cu 1.916920102864434483e+00 6.106730693181028347e-01 0.000000000000000000e+00
Cu 1.916488356622306544e+00 7.034173123926654725e-01 0.000000000000000000e+00
Cu 1.916011307720380641e+00 7.965608835140484123e-01 0.000000000000000000e+00
Cu 1.915874063728671306e+00 8.901060862878816815e-01 0.000000000000000000e+00
Cu 2.040510082252563695e+00 5.397433686391252261e-02 0.000000000000000000e+00
Cu 2.042107500239179529e+00 1.474116876109703989e-01 0.000000000000000000e+00
Cu 2.044196049607287069e+00 2.402748749523249960e-01 0.000000000000000000e+00
Cu 2.046064237407758668e+00 3.328042308447570208e-01 0.000000000000000000e+00
Cu 2.047263931129859937e+00 4.253402491381221284e-01 0.000000000000000000e+00
Cu 2.047694960839038458e+00 5.179512127697222246e-01 0.000000000000000000e+00
Cu 2.047338174920918519e+00 6.105352995319941467e-01 0.000000000000000000e+00
Cu 2.046258667883553706e+00 7.031559399724924830e-01 0.000000000000000000e+00
Cu 2.044879290539225014e+00 7.961450094993909321e-01 0.000000000000000000e+00
Cu 2.043895333364476041e+00 8.897325050508246846e-01 0.000000000000000000e+00
Cu 2.168248514195255439e+00 5.263426328183363340e-02 0.000000000000000000e+00
Cu 2.171399824843339488e+00 1.462385102162221395e-01 0.000000000000000000e+00
Cu 2.174792902402003847e+00 2.389335105604868392e-01 0.000000000000000000e+00
Cu 2.177178866106606936e+00 3.316435552329107805e-01 0.000000000000000000e+00
Cu 2.178435430788529636e+00 4.247372021977247059e-01 0.000000000000000000e+00
Cu 2.178839931337315683e+00 5.179648596749217848e-01 0.000000000000000000e+00
Cu 2.178373247008804192e+00 6.110973560566462792e-01 0.000000000000000000e+00
Cu 2.176722150786947196e+00 7.038805738237021714e-01 0.000000000000000000e+00
Cu 2.173980721559987117e+00 7.966733013350434378e-01 0.000000000000000000e+00
Cu 2.171386793706362006e+00 8.903906487695022465e-01 0.000000000000000000e+00
Cu 2.294457604857598643e+00 4.913163313096909762e-02 0.000000000000000000e+00
Cu 2.301237295432541963e+00 1.429694496269855453e-01 0.000000000000000000e+00
Cu 2.306181949967634814e+00 2.359251908614422855e-01 0.000000000000000000e+00
Cu 2.308540073058118924e+00 3.298196213873250682e-01 0.000000000000000000e+00
Cu 2.309804320076164874e+00 4.239568514153393974e-01 0.000000000000000000e+00
Cu 2.310194420410783600e+00 5.181638809119158973e-01 0.000000000000000000e+00
Cu 2.309692885529627038e+00 6.123416263874315035e-01 0.000000000000000000e+00
Cu 2.308043846008939415e+00 7.063075980817308253e-01 0.000000000000000000e+00
Cu 2.303719639984257661e+00 7.993562044700578406e-01 0.000000000000000000e+00
Cu 2.297451820165379743e+00 8.932853683577878234e-01 0.000000000000000000e+00
Cu 2.416293733998996718e+00 3.769949082247176647e-02 0.000000000000000000e+00
Cu 2.432642891103813376e+00 1.352141358586533837e-01 0.000000000000000000e+00
Cu 2.437316140870214198e+00 2.319619667602410007e-01 0.000000000000000000e+00
Cu 2.439951104783076197e+00 3.277799975418585476e-01 0.000000000000000000e+00
Cu 2.441225132253487029e+00 4.231319716567066846e-01 0.000000000000000000e+00
Cu 2.441607522483532744e+00 5.183791220175202330e-01 0.000000000000000000e+00
Cu 2.441083126378729151e+00 6.137852530753873381e-01 0.000000000000000000e+00
Cu 2.439153376522818384e+00 7.097020193148785294e-01 0.000000000000000000e+00
Cu 2.435107893404826918e+00 8.065679700696964938e-01 0.000000000000000000e+00
Cu 2.419275968034629187e+00 9.042163626470436366e-01 0.000000000000000000e+00
