200

Cu 0.000000000000000000e+00 1.237949807839945453e-02 0.000000000000000000e+00
Cu 0.000000000000000000e+00 1.174793869302607069e-01 0.000000000000000000e+00
Cu 0.000000000000000000e+00 2.226057643912932593e-01 0.000000000000000000e+00
Cu 0.000000000000000000e+00 3.277746599025725405e-01 0.000000000000000000e+00
Cu 0.000000000000000000e+00 4.329902022347858481e-01 0.000000000000000000e+00
Cu 0.000000000000000000e+00 5.382504415373915441e-01 0.000000000000000000e+00
Cu 0.000000000000000000e+00 6.435522504980452085e-01 0.000000000000000000e+00
Cu 0.000000000000000000e+00 7.488928967204486753e-01 0.000000000000000000e+00
Cu 0.000000000000000000e+00 8.542681339330349122e-01 0.000000000000000000e+00
Cu 0.000000000000000000e+00 9.596681366849626471e-01 0.000000000000000000e+00
Cu 1.058676858680958066e-01 1.256245272724362816e-02 0.000000000000000000e+00
Cu 1.057049597237760541e-01 1.175719114133580989e-01 0.000000000000000000e+00
Cu 1.055844393190790709e-01 2.226766827698113960e-01 0.000000000000000000e+00
Cu 1.054693871304545338e-01 3.278428679611516405e-01 0.000000000000000000e+00
Cu 1.053575852889555020e-01 4.330608570886038677e-01 0.000000000000000000e+00
Cu 1.052479550120955509e-01 5.383252445712569667e-01 0.000000000000000000e+00
Cu 1.051386982778709928e-01 6.436315334099783625e-01 0.000000000000000000e+00
Cu 1.050266160448374703e-01 7.489779070122719595e-01 0.000000000000000000e+00
Cu 1.049059444931810386e-01 8.543712007604428171e-01 0.000000000000000000e+00
Cu 1.047390232751908845e-01 9.598472422173194296e-01 0.000000000000000000e+00
Cu 2.117139728591544978e-01 1.279895814936663108e-02 0.000000000000000000e+00
Cu 2.114322796427452467e-01 1.178142006454516028e-01 0.000000000000000000e+00
Cu 2.111725065691829883e-01 2.229024134895199738e-01 0.000000000000000000e+00
Cu 2.109342774649130003e-01 3.280649713893609154e-01 0.000000000000000000e+00
Cu 2.107074870085654250e-01 4.332876990185504651e-01 0.000000000000000000e+00
Cu 2.104881821509985984e-01 5.385607336112011589e-01 0.000000000000000000e+00
Cu 2.102712930617468556e-01 6.438772659762848072e-01 0.000000000000000000e+00
Cu 2.100476406577316268e-01 7.492355938332423415e-01 0.000000000000000000e+00
Cu 2.097986509439076497e-01 8.546441636571144862e-01 0.000000000000000000e+00
Cu 2.095119380273238185e-01 9.601069536833609641e-01 0.000000000000000000e+00
Cu 3.175402828282217205e-01 1.315065136096369401e-02 0.000000000000000000e+00
Cu 3.171386825352739969e-01 1.181742615209815661e-01 0.000000000000000000e+00
Cu 3.167525702433435231e-01 2.232688580633531983e-01 0.000000000000000000e+00
Cu 3.163875828968952808e-01 3.284341241292539904e-01 0.000000000000000000e+00
Cu 3.160433007103317649e-01 4.336641077838697123e-01 0.000000000000000000e+00
Cu 3.157151257830663749e-01 5.389482054532525046e-01 0.000000000000000000e+00
Cu 3.153956251726394711e-01 6.442771754548507479e-01 0.000000000000000000e+00
Cu 3.150706380872000945e-01 7.496450426732739203e-01 0.000000000000000000e+00
Cu 3.147221920286880636e-01 8.550483978512473104e-01 0.000000000000000000e+00
Cu 3.143332050867810867e-01 9.604904542114870436e-01 0.000000000000000000e+00
Cu 4.233440013850960915e-01 1.362173749016444557e-02 0.000000000000000000e+00
Cu 4.228186421344970469e-01 1.186562234871783861e-01 0.000000000000000000e+00
Cu 4.223073976022871934e-01 2.237625551540030344e-01 0.000000000000000000e+00
Cu 4.218192518650756839e-01 3.289389835283181296e-01 0.000000000000000000e+00
Cu 4.213587335067058293e-01 4.341788039228266505e-01 0.000000000000000000e+00
Cu 4.209255229821854405e-01 5.394724527671642678e-01 0.000000000000000000e+00
Cu 4.205135370562882446e-01 6.448090715271699302e-01 0.000000000000000000e+00
Cu 4.201088804238552465e-01 7.501775488341735354e-01 0.000000000000000000e+00
Cu 4.196883835279103803e-01 8.555683428469602614e-01 0.000000000000000000e+00
Cu 4.192230800004869140e-01 9.609805025308334470e-01 0.000000000000000000e+00
Cu 5.291235592548374500e-01 1.421470282123690233e-02 0.000000000000000000e+00
Cu 5.284688953173343196e-01 1.192595670280736930e-01 0.000000000000000000e+00
Cu 5.278291931824479200e-01 2.243788151172516343e-01 0.000000000000000000e+00
Cu 5.272196419259815858e-01 3.295686279549253639e-01 0.000000000000000000e+00
Cu 5.266491096084370271e-01 4.348183446663313467e-01 0.000000000000000000e+00
Cu 5.261201816426704925e-01 5.401142615675047498e-01 0.000000000000000000e+00
Cu 5.256305612017394546e-01 6.454451834647617625e-01 0.000000000000000000e+00
Cu 5.251684841313688512e-01 7.508008099239403821e-01 0.000000000000000000e+00
Cu 5.247071126421579690e-01 8.561711131150312459e-01 0.000000000000000000e+00
Cu 5.242036436569885716e-01 9.615453440580947753e-01 0.000000000000000000e+00
Cu 6.348811044147308902e-01 1.493451872636030776e-02 0.000000000000000000e+00
Cu 6.340883780272554837e-01 1.199865070720097376e-01 0.000000000000000000e+00
Cu 6.333131470484443248e-01 2.251145265501683645e-01 0.000000000000000000e+00
Cu 6.325823565955479566e-01 3.303146221224398937e-01 0.000000000000000000e+00
Cu 6.319115620697620672e-01 4.355689377256707906e-01 0.000000000000000000e+00
Cu 6.313060218639918730e-01 5.408552803368048556e-01 0.000000000000000000e+00
Cu 6.307588200657233690e-01 6.461552435882280676e-01 0.000000000000000000e+00
Cu 6.302588896335243884e-01 7.514727611327631784e-01 0.000000000000000000e+00
Cu 6.297840878351506078e-01 8.568048487493096221e-01 0.000000000000000000e+00
Cu 6.292937716807928128e-01 9.621364782333201582e-01 0.000000000000000000e+00
Cu 7.406198097533860381e-01 1.579224653212547499e-02 0.000000000000000000e+00
Cu 7.396799854264873852e-01 1.208464827508814038e-01 0.000000000000000000e+00
Cu 7.387590680732563087e-01 2.259720280790511460e-01 0.000000000000000000e+00
Cu 7.379018269596667734e-01 3.311689765534004959e-01 0.000000000000000000e+00
Cu 7.371450709660011258e-01 4.364172183467910915e-01 0.000000000000000000e+00
Cu 7.364935091643145526e-01 5.416718686784260939e-01 0.000000000000000000e+00
Cu 7.359289226640077786e-01 6.469141166879626148e-01 0.000000000000000000e+00
Cu 7.353984974086843485e-01 7.521451532565718301e-01 0.000000000000000000e+00
Cu 7.349275015550310597e-01 8.574109140183269195e-01 0.000000000000000000e+00
Cu 7.345060754857531959e-01 9.626558833856652120e-01 0.000000000000000000e+00
Cu 8.463379259250277675e-01 1.679905028205976730e-02 0.000000000000000000e+00
Cu 8.452467955382014786e-01 1.218579784399913130e-01 0.000000000000000000e+00
Cu 8.441762105454195808e-01 2.269687079098685889e-01 0.000000000000000000e+00
Cu 8.431796998340466143e-01 3.321315614497480362e-01 0.000000000000000000e+00
Cu 8.423429582632032675e-01 4.373397130142619438e-01 0.000000000000000000e+00
Cu 8.417143066913306271e-01 5.425315568897283169e-01 0.000000000000000000e+00
Cu 8.411643756439213249e-01 6.476624173054810196e-01 0.000000000000000000e+00
Cu 8.406189693714509747e-01 7.528551771478952936e-01 0.000000000000000000e+00
Cu 3.952965802781167604e+00 6.790466191174427957e-01 0.000000000000000000e+00
Cu 3.929756734007864960e+00 7.811468835068847705e-01 0.000000000000000000e+00
Cu 9.520299082339458430e-01 1.797019825718602568e-02 0.000000000000000000e+00
Cu 9.507767467918223359e-01 1.230336730450841132e-01 0.000000000000000000e+00
Cu 9.495734976265871596e-01 2.281481297834832001e-01 0.000000000000000000e+00
Cu 9.484439115587036673e-01 3.332410911690150135e-01 0.000000000000000000e+00
Cu 9.475159320955327535e-01 4.383135635696961407e-01 0.000000000000000000e+00
Cu 9.470430122882013135e-01 5.432776428506115307e-01 0.000000000000000000e+00
Cu 9.464714487427146050e-01 6.484024569671928973e-01 0.000000000000000000e+00
Cu 4.085889351033463512e+00 6.027856647634322051e-01 0.000000000000000000e+00
Cu 4.060858777678718390e+00 7.029991748669524032e-01 0.000000000000000000e+00
Cu 4.040224465253221986e+00 8.019645553710349484e-01 0.000000000000000000e+00
Cu 1.057678683168996159e+00 1.931438688288147909e-02 0.000000000000000000e+00
Cu 1.056260255387294844e+00 1.244027788514225075e-01 0.000000000000000000e+00
Cu 1.054893666424093102e+00 2.295080370572569195e-01 0.000000000000000000e+00
Cu 1.053709821663780133e+00 3.346663892417475750e-01 0.000000000000000000e+00
Cu 4.276727390688651376e+00 3.278674600926139715e-01 0.000000000000000000e+00
Cu 4.241395118683814580e+00 4.259020838627339822e-01 0.000000000000000000e+00
Cu 4.221717860299088798e+00 5.277633617860792992e-01 0.000000000000000000e+00
Cu 4.195867778225809808e+00 6.264003272916915943e-01 0.000000000000000000e+00
Cu 4.174897328074031577e+00 7.239971062226482346e-01 0.000000000000000000e+00
Cu 4.157446640970826834e+00 8.205607635825663548e-01 0.000000000000000000e+00
Cu 1.163274944007561817e+00 2.087170865264587061e-02 0.000000000000000000e+00
Cu 1.161645348710284908e+00 1.259679377132991995e-01 0.000000000000000000e+00
Cu 1.160167357671118005e+00 2.311436809070742116e-01 0.000000000000000000e+00
Cu 4.413776920464807851e+00 2.581210797424085546e-01 0.000000000000000000e+00
Cu 4.382333716054434447e+00 3.568420381183828316e-01 0.000000000000000000e+00
Cu 4.359834330942965686e+00 4.543656576392411384e-01 0.000000000000000000e+00
Cu 4.333057048943782519e+00 5.495078136053316298e-01 0.000000000000000000e+00
Cu 4.312723592267223793e+00 6.465147850027884724e-01 0.000000000000000000e+00
Cu 4.294819506442920876e+00 7.416882949007734815e-01 0.000000000000000000e+00
Cu 4.280373951380464170e+00 8.360306937686663442e-01 0.000000000000000000e+00
Cu 1.268771005053238810e+00 2.263883995585529510e-02 0.000000000000000000e+00
Cu 1.266955153249300192e+00 1.278198428985674040e-01 0.000000000000000000e+00
Cu 4.554257224057500331e+00 1.902598618714060608e-01 0.000000000000000000e+00
Cu 4.522828801190781789e+00 2.869852037934394473e-01 0.000000000000000000e+00
Cu 4.497353165874287129e+00 3.820854135217527925e-01 0.000000000000000000e+00
Cu 4.474694096097129759e+00 4.766848779270008718e-01 0.000000000000000000e+00
Cu 4.453731591995961026e+00 5.706306464955072100e-01 0.000000000000000000e+00
Cu 4.435284403288910049e+00 6.633602315870006372e-01 0.000000000000000000e+00
Cu 4.420221643769808750e+00 7.562224443311973410e-01 0.000000000000000000e+00
Cu 4.408152190877244081e+00 8.485092199300425797e-01 0.000000000000000000e+00
Cu 1.374181447636122044e+00 2.477504127816912427e-02 0.000000000000000000e+00
Cu 4.694799190454982174e+00 1.238066506317044430e-01 0.000000000000000000e+00
Cu 4.665136660922483358e+00 2.195153856512943591e-01 0.000000000000000000e+00
Cu 4.640225856283016093e+00 3.128648539293089059e-01 0.000000000000000000e+00
Cu 4.618162453230256759e+00 4.047086584683538546e-01 0.000000000000000000e+00
Cu 4.598147239386109142e+00 4.960451373018751609e-01 0.000000000000000000e+00
Cu 4.579968535120919171e+00 5.869808032339021153e-01 0.000000000000000000e+00
Cu 4.563883870195292403e+00 6.775634798754508470e-01 0.000000000000000000e+00
Cu 4.550423736466648883e+00 7.679984781776226788e-01 0.000000000000000000e+00
Cu 4.540183624301394438e+00 8.584149846889636004e-01 0.000000000000000000e+00
Cu 4.831822074277071444e+00 5.615945752179934275e-02 0.000000000000000000e+00
Cu 4.807151156384512625e+00 1.519536711115548333e-01 0.000000000000000000e+00
Cu 4.784946041236464609e+00 2.442127617484655400e-01 0.000000000000000000e+00
Cu 4.764753056273374199e+00 3.344136844405215525e-01 0.000000000000000000e+00
Cu 4.745987129942215610e+00 4.235396555751091419e-01 0.000000000000000000e+00
Cu 4.728334713695023339e+00 5.121217531982320548e-01 0.000000000000000000e+00
Cu 4.711963883370606787e+00 6.005282203684400022e-01 0.000000000000000000e+00
Cu 4.697305904475507887e+00 6.889561964272693517e-01 0.000000000000000000e+00
Cu 4.685029583841947343e+00 7.775380328433391108e-01 0.000000000000000000e+00
Cu 4.675909923759390630e+00 8.662696335026104366e-01 0.000000000000000000e+00
Cu 4.945222549093736930e+00 7.929048419214300425e-02 0.000000000000000000e+00
Cu 4.928774875852195869e+00 1.731363480602777782e-01 0.000000000000000000e+00
Cu 4.912320323312415304e+00 2.633679524248493942e-01 0.000000000000000000e+00
Cu 4.896173425285800462e+00 3.515008388200165923e-01 0.000000000000000000e+00
Cu 4.880170765297873636e+00 4.386014741670483108e-01 0.000000000000000000e+00
Cu 4.864381984248043800e+00 5.252645776380088227e-01 0.000000000000000000e+00
Cu 4.849180275700150311e+00 6.117757437172072210e-01 0.000000000000000000e+00
Cu 4.835228152734904583e+00 6.983915209923314826e-01 0.000000000000000000e+00
Cu 4.823428888000608872e+00 7.853553366419713244e-01 0.000000000000000000e+00
Cu 4.814848898880705441e+00 8.726979049275217504e-01 0.000000000000000000e+00
Cu 5.068509317176786766e+00 9.752585545984499005e-02 0.000000000000000000e+00
Cu 5.057894819111900198e+00 1.889387950356894996e-01 0.000000000000000000e+00
Cu 5.046499264387189321e+00 2.775853055124120616e-01 0.000000000000000000e+00
Cu 5.033865177726441154e+00 3.643600548067806311e-01 0.000000000000000000e+00
Cu 5.020052085446990553e+00 4.503764261268391467e-01 0.000000000000000000e+00
Cu 5.005624711585472397e+00 5.360910848400893824e-01 0.000000000000000000e+00
Cu 4.991173218527314326e+00 6.214811896589318430e-01 0.000000000000000000e+00
Cu 4.977335109695712134e+00 7.067018221524717925e-01 0.000000000000000000e+00
Cu 4.965226988001804287e+00 7.922566070408729733e-01 0.000000000000000000e+00
Cu 4.956413781900925741e+00 8.784540972689596217e-01 0.000000000000000000e+00
Cu 5.199486301660059873e+00 1.111195024291616873e-01 0.000000000000000000e+00
Cu 5.194151463363724908e+00 2.003747292438558258e-01 0.000000000000000000e+00
Cu 5.187316474937413879e+00 2.874105809891833174e-01 0.000000000000000000e+00
Cu 5.177399951148349722e+00 3.735642822690515286e-01 0.000000000000000000e+00
Cu 5.164952594835948041e+00 4.596107911402507185e-01 0.000000000000000000e+00
Cu 5.151430318514425899e+00 5.453552119779030427e-01 0.000000000000000000e+00
Cu 5.137616546901255354e+00 6.306353228525096721e-01 0.000000000000000000e+00
Cu 5.123535636900236945e+00 7.150374620072712517e-01 0.000000000000000000e+00
Cu 5.110119265733389149e+00 7.992843159982745416e-01 0.000000000000000000e+00
Cu 5.099806622812391943e+00 8.846172758430537186e-01 0.000000000000000000e+00
Cu 5.335763572522260745e+00 1.186685351828986185e-01 0.000000000000000000e+00
Cu 5.337597895141623638e+00 2.064547199696130930e-01 0.000000000000000000e+00
Cu 5.335115182853886751e+00 2.927576304177402222e-01 0.000000000000000000e+00
Cu 5.325955436056210246e+00 3.801780946332358191e-01 0.000000000000000000e+00
Cu 5.314336498676303755e+00 4.673103352205965066e-01 0.000000000000000000e+00
Cu 5.301352675562853278e+00 5.538739100999368059e-01 0.000000000000000000e+00
Cu 5.287780036233233893e+00 6.397999278596059325e-01 0.000000000000000000e+00
Cu 5.274259982138659097e+00 7.251025899675556108e-01 0.000000000000000000e+00
Cu 5.258159730638849005e+00 8.082424039410210925e-01 0.000000000000000000e+00
Cu 5.243307163558381667e+00 8.930414740334631230e-01 0.000000000000000000e+00
Cu 5.470400633821186354e+00 1.110185792312402275e-01 0.000000000000000000e+00
Cu 5.491518941502674167e+00 2.034546943905436167e-01 0.000000000000000000e+00
Cu 5.487462676850332066e+00 2.956534503121427404e-01 0.000000000000000000e+00
Cu 5.479239131159682863e+00 3.860140042865866650e-01 0.000000000000000000e+00
Cu 5.467800533074189673e+00 4.747127657023180181e-01 0.000000000000000000e+00
Cu 5.455053142811355116e+00 5.622728434440894540e-01 0.000000000000000000e+00
Cu 5.441775040554185594e+00 6.491388197611243083e-01 0.000000000000000000e+00
Cu 5.427471979071093244e+00 7.359750938988197655e-01 0.000000000000000000e+00
Cu 5.413037178093287771e+00 8.241535431625651720e-01 0.000000000000000000e+00
Cu 5.379348298290392627e+00 9.114353654673766902e-01 0.000000000000000000e+00
