200

Cu 0.000000000000000000e+00 4.782490048301848984e-02 0.000000000000000000e+00
Cu 0.000000000000000000e+00 1.438752044060335467e-01 0.000000000000000000e+00
Cu 0.000000000000000000e+00 2.385634114671974226e-01 0.000000000000000000e+00
Cu 0.000000000000000000e+00 3.326360419195082962e-01 0.000000000000000000e+00
Cu 0.000000000000000000e+00 4.264954113367305788e-01 0.000000000000000000e+00
Cu 0.000000000000000000e+00 5.203476475578059368e-01 0.000000000000000000e+00
Cu 0.000000000000000000e+00 6.143598977833177877e-01 0.000000000000000000e+00
Cu 0.000000000000000000e+00 7.087173980645474769e-01 0.000000000000000000e+00
Cu 0.000000000000000000e+00 8.037798431237084262e-01 0.000000000000000000e+00
Cu 0.000000000000000000e+00 9.002250533004017008e-01 0.000000000000000000e+00
Cu 1.313137402641245399e-01 5.288239316922400957e-02 0.000000000000000000e+00
Cu 1.299891401782349298e-01 1.456236285443676670e-01 0.000000000000000000e+00
Cu 1.299440111494807870e-01 2.392954341699976839e-01 0.000000000000000000e+00
Cu 1.298863429353610821e-01 3.329879895646663535e-01 0.000000000000000000e+00
Cu 1.297865394452224208e-01 4.266180458204016368e-01 0.000000000000000000e+00
Cu 1.296306627621141849e-01 5.202799024011353080e-01 0.000000000000000000e+00
Cu 1.294312133508759843e-01 6.140723750185645979e-01 0.000000000000000000e+00
Cu 1.292218625519039876e-01 7.080696197203206754e-01 0.000000000000000000e+00
Cu 1.290447230322286643e-01 8.021637036563722400e-01 0.000000000000000000e+00
Cu 1.301570888487528221e-01 8.954415231456468449e-01 0.000000000000000000e+00
Cu 2.620192836923430635e-01 5.525997847282713982e-02 0.000000000000000000e+00
Cu 2.609214424363714979e-01 1.477735827617806252e-01 0.000000000000000000e+00
Cu 2.603252874431123409e-01 2.405770077706501087e-01 0.000000000000000000e+00
Cu 2.600824234567488125e-01 3.337188731403313291e-01 0.000000000000000000e+00
Cu 2.598245049213455116e-01 4.269600234054733434e-01 0.000000000000000000e+00
Cu 2.595033375251258323e-01 5.202704869738796756e-01 0.000000000000000000e+00
Cu 2.591507575338826141e-01 6.136734319079554245e-01 0.000000000000000000e+00
Cu 2.588547554477101942e-01 7.071195942746868468e-01 0.000000000000000000e+00
Cu 2.589800426673506961e-01 8.003675241605676671e-01 0.000000000000000000e+00
Cu 2.596770249157983601e-01 8.934547554969667349e-01 0.000000000000000000e+00
Cu 3.926254874229828107e-01 5.691989489911863931e-02 0.000000000000000000e+00
Cu 3.917422023208252391e-01 1.493942426945853996e-01 0.000000000000000000e+00
Cu 3.910880666257241511e-01 2.419650233241345816e-01 0.000000000000000000e+00
Cu 3.906474499657870969e-01 3.346933204623304126e-01 0.000000000000000000e+00
Cu 3.902411260259187609e-01 4.275144406379268736e-01 0.000000000000000000e+00
Cu 3.897417512954868823e-01 5.203726361616656249e-01 0.000000000000000000e+00
Cu 3.892227439961939428e-01 6.133067284005346842e-01 0.000000000000000000e+00
Cu 3.888523831444341550e-01 7.062881234237659012e-01 0.000000000000000000e+00
Cu 3.887634985248339392e-01 7.992941112881263299e-01 0.000000000000000000e+00
Cu 3.890022374999940191e-01 8.923859600614002519e-01 0.000000000000000000e+00
Cu 5.232335146598487974e-01 5.823065981810936903e-02 0.000000000000000000e+00
Cu 5.225218325258051966e-01 1.506845549118953909e-01 0.000000000000000000e+00
Cu 5.219515550176667684e-01 2.431833785572934670e-01 0.000000000000000000e+00
Cu 5.215029589379330810e-01 3.357382822167635505e-01 0.000000000000000000e+00
Cu 5.210898528110666783e-01 4.282971649869383168e-01 0.000000000000000000e+00
Cu 5.204486940955717067e-01 5.207023330557569718e-01 0.000000000000000000e+00
Cu 5.196336472969118603e-01 6.131146580730838513e-01 0.000000000000000000e+00
Cu 5.189443535561133469e-01 7.058050858349044221e-01 0.000000000000000000e+00
Cu 5.184374897319333764e-01 7.987730106283262854e-01 0.000000000000000000e+00
Cu 5.181379525283364984e-01 8.919549818400382968e-01 0.000000000000000000e+00
Cu 6.538871313229548399e-01 5.929878656760336625e-02 0.000000000000000000e+00
Cu 6.533241710707697880e-01 1.517242363672707817e-01 0.000000000000000000e+00
Cu 6.528701227178388411e-01 2.441931697185381056e-01 0.000000000000000000e+00
Cu 6.525251732192209886e-01 3.367075540793203481e-01 0.000000000000000000e+00
Cu 6.522017551848653394e-01 4.292070239463202652e-01 0.000000000000000000e+00
Cu 6.518284164580711026e-01 5.215501198838446983e-01 0.000000000000000000e+00
Cu 6.504997243579838662e-01 6.132518895777702150e-01 0.000000000000000000e+00
Cu 6.489878341440873388e-01 7.055054403849791989e-01 0.000000000000000000e+00
Cu 6.479411806341125457e-01 7.988067131499759777e-01 0.000000000000000000e+00
Cu 6.469917246112487641e-01 8.923374115303788212e-01 0.000000000000000000e+00
Cu 7.846282975946166083e-01 6.015823276931262648e-02 0.000000000000000000e+00
Cu 7.841952521725304992e-01 1.525345606509321827e-01 0.000000000000000000e+00
Cu 7.838560544104743455e-01 2.449693598605070521e-01 0.000000000000000000e+00
Cu 7.836135273254999367e-01 3.374780313515334251e-01 0.000000000000000000e+00
Cu 7.834860064947699598e-01 4.300571514034337572e-01 0.000000000000000000e+00
Cu 7.832338550123040255e-01 5.226090575029773699e-01 0.000000000000000000e+00
Cu 7.831730404224037656e-01 6.149427802060464243e-01 0.000000000000000000e+00
Cu 7.788600203630086094e-01 7.048277539074282450e-01 0.000000000000000000e+00
Cu 7.762290470261828945e-01 7.991143674786183038e-01 0.000000000000000000e+00
Cu 7.758753986666090396e-01 8.941685918874133776e-01 0.000000000000000000e+00
Cu 9.155055167341986655e-01 6.082678011537349244e-02 0.000000000000000000e+00
Cu 9.151862365313949699e-01 1.531250852805720875e-01 0.000000000000000000e+00
Cu 9.149377027433822640e-01 2.454913604746411515e-01 0.000000000000000000e+00
Cu 9.147930161472608290e-01 3.379571778850222752e-01 0.000000000000000000e+00
Cu 9.147276347122604845e-01 4.305616538240552016e-01 0.000000000000000000e+00
Cu 9.148998086526084483e-01 5.233766636843139031e-01 0.000000000000000000e+00
Cu 9.144402824243762495e-01 6.164662493546144706e-01 0.000000000000000000e+00
Cu 9.166214945013079207e-01 7.102359778652801436e-01 0.000000000000000000e+00
Cu 8.947266926523332886e-01 7.963291628526196764e-01 0.000000000000000000e+00
Cu 9.097347528436808828e-01 8.925187770701151768e-01 0.000000000000000000e+00
Cu 1.046573400687748290e+00 6.132585033569749183e-02 0.000000000000000000e+00
Cu 1.046350608115505398e+00 1.535136682453994428e-01 0.000000000000000000e+00
Cu 1.046183859488141854e+00 2.457621219462384488e-01 0.000000000000000000e+00
Cu 1.046097494516425641e+00 3.380972270828655479e-01 0.000000000000000000e+00
Cu 1.046160533979092477e+00 4.305586212488241027e-01 0.000000000000000000e+00
Cu 1.046234288991934935e+00 5.232234209556031468e-01 0.000000000000000000e+00
Cu 1.047183076228770826e+00 6.161610308736492625e-01 0.000000000000000000e+00
Cu 1.045674082835535312e+00 7.098078114144192874e-01 0.000000000000000000e+00
Cu 1.068321290944628688e+00 7.955607705302359944e-01 0.000000000000000000e+00
Cu 1.054239927248120212e+00 8.917627797068651274e-01 0.000000000000000000e+00
Cu 1.177882443259840928e+00 6.168592099568563636e-02 0.000000000000000000e+00
Cu 1.177745401837335448e+00 1.537338473009955686e-01 0.000000000000000000e+00
Cu 1.177657043955914418e+00 2.458137835807946425e-01 0.000000000000000000e+00
Cu 1.177667918974565353e+00 3.379218533510763289e-01 0.000000000000000000e+00
Cu 1.177797382621030620e+00 4.300550877158880181e-01 0.000000000000000000e+00
Cu 1.178304596424105011e+00 5.221366100729274429e-01 0.000000000000000000e+00
Cu 1.178847099531140863e+00 6.140089735979959995e-01 0.000000000000000000e+00
Cu 1.183839722417544316e+00 7.034300007720715175e-01 0.000000000000000000e+00
Cu 1.187301048025698913e+00 7.972778730836702632e-01 0.000000000000000000e+00
Cu 1.188628589281493397e+00 8.919299362243658935e-01 0.000000000000000000e+00
Cu 1.309470171139871075e+00 6.194631793085911969e-02 0.000000000000000000e+00
Cu 1.309411858501598580e+00 1.538355281852712697e-01 0.000000000000000000e+00
Cu 1.309425341657158404e+00 2.457093949086368301e-01 0.000000000000000000e+00
Cu 1.309552250378033911e+00 3.375272609289536874e-01 0.000000000000000000e+00
Cu 1.309901218844327087e+00 4.292290123063435825e-01 0.000000000000000000e+00
Cu 1.310537767382595753e+00 5.207239028363945810e-01 0.000000000000000000e+00
Cu 1.312360113207015511e+00 6.115947260912018013e-01 0.000000000000000000e+00
Cu 1.314576683702225912e+00 7.030811518821062922e-01 0.000000000000000000e+00
Cu 1.316518872297027798e+00 7.956920291698696968e-01 0.000000000000000000e+00
Cu 1.318468940148144197e+00 8.885729851840360460e-01 0.000000000000000000e+00
Cu 1.441347149123786142e+00 6.215043983110275783e-02 0.000000000000000000e+00
Cu 1.441371918303749222e+00 1.538796582498654364e-01 0.000000000000000000e+00
Cu 1.441512794254377727e+00 2.455375747011779020e-01 0.000000000000000000e+00
Cu 1.441809861280108018e+00 3.370528698803798573e-01 0.000000000000000000e+00
Cu 1.442317467288607213e+00 4.283787304198699575e-01 0.000000000000000000e+00
Cu 1.443248923676394790e+00 5.194573448657064940e-01 0.000000000000000000e+00
Cu 1.444540350869428114e+00 6.105899206198996954e-01 0.000000000000000000e+00
Cu 1.445927746820714122e+00 7.021536549455039689e-01 0.000000000000000000e+00
Cu 1.447357587537390744e+00 7.941612372246089624e-01 0.000000000000000000e+00
Cu 1.448758425702123098e+00 8.864737615622091393e-01 0.000000000000000000e+00
Cu 1.573489046788438595e+00 6.233331058157996762e-02 0.000000000000000000e+00
Cu 1.573614879767504471e+00 1.539239503944030696e-01 0.000000000000000000e+00
Cu 1.573926128997538143e+00 2.453854872636777595e-01 0.000000000000000000e+00
Cu 1.574404795096014276e+00 3.366406539289188982e-01 0.000000000000000000e+00
Cu 1.575067698394154725e+00 4.276800710902973202e-01 0.000000000000000000e+00
Cu 1.575896778760998318e+00 5.186329305649350907e-01 0.000000000000000000e+00
Cu 1.576809397074357078e+00 6.097286364739719078e-01 0.000000000000000000e+00
Cu 1.577758095972777275e+00 7.011302895680203706e-01 0.000000000000000000e+00
Cu 1.578744429278054584e+00 7.928781099287907086e-01 0.000000000000000000e+00
Cu 1.579731564059909221e+00 8.849034730522350456e-01 0.000000000000000000e+00
Cu 1.705829489293491763e+00 6.250089495647197235e-02 0.000000000000000000e+00
Cu 1.706104480210600016e+00 1.539960714573643807e-01 0.000000000000000000e+00
Cu 1.706645901080156902e+00 2.453039000341474263e-01 0.000000000000000000e+00
Cu 1.707347808056179472e+00 3.363515819636048176e-01 0.000000000000000000e+00
Cu 1.708101169741568670e+00 4.271904498627442370e-01 0.000000000000000000e+00
Cu 1.708805310103302944e+00 5.179806054058393450e-01 0.000000000000000000e+00
Cu 1.709414520853256958e+00 6.089164820058340366e-01 0.000000000000000000e+00
Cu 1.709962438754227376e+00 7.001453694446123643e-01 0.000000000000000000e+00
Cu 1.710527404841271304e+00 7.917203968270414283e-01 0.000000000000000000e+00
Cu 1.711187477647657662e+00 8.835667021450148706e-01 0.000000000000000000e+00
Cu 1.838259451644028264e+00 6.260221696744813769e-02 0.000000000000000000e+00
Cu 1.838782072962137137e+00 1.540630568675178946e-01 0.000000000000000000e+00
Cu 1.839664835134843246e+00 2.452634061709291213e-01 0.000000000000000000e+00
Cu 1.840666627622454365e+00 3.361509029375882585e-01 0.000000000000000000e+00
Cu 1.841553457818076556e+00 4.268172655200647703e-01 0.000000000000000000e+00
Cu 1.842159005314574660e+00 5.174341649163468615e-01 0.000000000000000000e+00
Cu 1.842452370081597790e+00 6.081906724471234371e-01 0.000000000000000000e+00
Cu 1.842544654819644245e+00 6.992475146075342041e-01 0.000000000000000000e+00
Cu 1.842630511752876732e+00 7.906831527459005082e-01 0.000000000000000000e+00
Cu 1.842926155493667562e+00 8.824297902387712167e-01 0.000000000000000000e+00
Cu 1.970620272308054366e+00 6.249815012265691472e-02 0.000000000000000000e+00
Cu 1.971580252118589449e+00 1.539989649021969442e-01 0.000000000000000000e+00
Cu 1.972998064137091667e+00 2.451243648166745726e-01 0.000000000000000000e+00
Cu 1.974440122825643407e+00 3.358862181735480235e-01 0.000000000000000000e+00
Cu 1.975535958821367233e+00 4.264608818536901880e-01 0.000000000000000000e+00
Cu 1.976068003104816562e+00 5.170135946623720669e-01 0.000000000000000000e+00
Cu 1.976010850694249976e+00 6.076617313733015946e-01 0.000000000000000000e+00
Cu 1.975535732684094103e+00 6.985626330116432303e-01 0.000000000000000000e+00
Cu 1.974977795430351124e+00 7.898793569653411728e-01 0.000000000000000000e+00
Cu 1.974746460499757550e+00 8.816073510867629137e-01 0.000000000000000000e+00
Cu 2.102673888204073194e+00 6.191491467174355112e-02 0.000000000000000000e+00
Cu 2.104439143539277079e+00 1.535427685008382559e-01 0.000000000000000000e+00
Cu 2.106721404916017892e+00 2.445875583134551334e-01 0.000000000000000000e+00
Cu 2.108756234125857887e+00 3.352881245975393165e-01 0.000000000000000000e+00
Cu 2.110066457339070389e+00 4.259985654413502854e-01 0.000000000000000000e+00
Cu 2.110547323681846610e+00 5.167914588621911332e-01 0.000000000000000000e+00
Cu 2.110175278405154398e+00 6.075586603686582432e-01 0.000000000000000000e+00
Cu 2.109011729441403471e+00 6.983666743795048371e-01 0.000000000000000000e+00
Cu 2.107502273466420384e+00 7.895588067364618379e-01 0.000000000000000000e+00
Cu 2.106390865327244732e+00 8.813610168555536806e-01 0.000000000000000000e+00
Cu 2.233993150624708601e+00 6.032398414317884094e-02 0.000000000000000000e+00
Cu 2.237371153803474844e+00 1.521792777376549943e-01 0.000000000000000000e+00
Cu 2.241038194855143217e+00 2.430923405922645608e-01 0.000000000000000000e+00
Cu 2.243633142299983785e+00 3.340148298966389429e-01 0.000000000000000000e+00
Cu 2.245002176072145250e+00 4.253443905121900293e-01 0.000000000000000000e+00
Cu 2.245451354993115878e+00 5.168130756389684999e-01 0.000000000000000000e+00
Cu 2.244957351205537854e+00 6.081884810628783722e-01 0.000000000000000000e+00
Cu 2.243170600520252300e+00 6.991971755915675768e-01 0.000000000000000000e+00
Cu 2.240210064885403529e+00 7.902244303148908688e-01 0.000000000000000000e+00
Cu 2.237422215375734158e+00 8.822104002453864391e-01 0.000000000000000000e+00
Cu 2.363566926918335920e+00 5.645425430020602903e-02 0.000000000000000000e+00
Cu 2.370780398866769723e+00 1.486385452997972811e-01 0.000000000000000000e+00
Cu 2.376181937069012484e+00 2.398318073809699580e-01 0.000000000000000000e+00
Cu 2.378739564092341219e+00 3.320470939726156701e-01 0.000000000000000000e+00
Cu 2.380133661557008118e+00 4.245036299969963123e-01 0.000000000000000000e+00
Cu 2.380565644891630139e+00 5.170327377239809508e-01 0.000000000000000000e+00
Cu 2.380014282856790064e+00 6.095371258216890631e-01 0.000000000000000000e+00
Cu 2.378234146042597530e+00 7.018363010415186176e-01 0.000000000000000000e+00
Cu 2.373503186138606225e+00 7.931382605224168714e-01 0.000000000000000000e+00
Cu 2.366827887053907009e+00 8.854268040512447424e-01 0.000000000000000000e+00
Cu 2.487981554141589946e+00 4.410611391912815094e-02 0.000000000000000000e+00
Cu 2.506007946701827027e+00 1.402493276725181592e-01 0.000000000000000000e+00
Cu 2.511009862673564630e+00 2.355752618846213564e-01 0.000000000000000000e+00
Cu 2.513915270597035789e+00 3.298534549280524586e-01 0.000000000000000000e+00
Cu 2.515314979387570649e+00 4.236165772293529752e-01 0.000000000000000000e+00
Cu 2.515738167761198518e+00 5.172674874862320804e-01 0.000000000000000000e+00
Cu 2.515166108276007950e+00 6.110944770650476032e-01 0.000000000000000000e+00
Cu 2.513033915929875572e+00 7.054890467590874126e-01 0.000000000000000000e+00
Cu 2.508710029909781980e+00 8.009523568823647688e-01 0.000000000000000000e+00
Cu 2.491227132447118908e+00 8.972506638406259061e-01 0.000000000000000000e+00
