200

Cu 0.000000000000000000e+00 2.594282855455081957e-02 0.000000000000000000e+00
Cu 0.000000000000000000e+00 1.261675070217533334e-01 0.000000000000000000e+00
Cu 0.000000000000000000e+00 2.256530964251460825e-01 0.000000000000000000e+00
Cu 0.000000000000000000e+00 3.248082281732579957e-01 0.000000000000000000e+00
Cu 0.000000000000000000e+00 4.238567605104238134e-01 0.000000000000000000e+00
Cu 0.000000000000000000e+00 5.229083670114732518e-01 0.000000000000000000e+00
Cu 0.000000000000000000e+00 6.220492863894975244e-01 0.000000000000000000e+00
Cu 0.000000000000000000e+00 7.213778846196409189e-01 0.000000000000000000e+00
Cu 0.000000000000000000e+00 8.210940035598510711e-01 0.000000000000000000e+00
Cu 0.000000000000000000e+00 9.215687790218389797e-01 0.000000000000000000e+00
Cu 1.198765856692663306e-01 2.897971616987242427e-02 0.000000000000000000e+00
Cu 1.189550446898914732e-01 1.272128506387801561e-01 0.000000000000000000e+00
Cu 1.188817650846140939e-01 2.260927262349824163e-01 0.000000000000000000e+00
Cu 1.188292505608415234e-01 3.250228827397562137e-01 0.000000000000000000e+00
Cu 1.187588009930629490e-01 4.239353486251499770e-01 0.000000000000000000e+00
Cu 1.186635481754140242e-01 5.228744614580057570e-01 0.000000000000000000e+00
Cu 1.185492704496649424e-01 6.218864467093131454e-01 0.000000000000000000e+00
Cu 1.184324279540858171e-01 7.210031738976185878e-01 0.000000000000000000e+00
Cu 1.183565155049204759e-01 8.201456219039570117e-01 0.000000000000000000e+00
Cu 1.191147928134893841e-01 9.187302706740041458e-01 0.000000000000000000e+00
Cu 2.393630968187497876e-01 3.043479273986501865e-02 0.000000000000000000e+00
Cu 2.385466762740709457e-01 1.285803883559264171e-01 0.000000000000000000e+00
Cu 2.380831411522750241e-01 2.269124304428699890e-01 0.000000000000000000e+00
Cu 2.378794098127534340e-01 3.254930343328115150e-01 0.000000000000000000e+00
Cu 2.376962354602528138e-01 4.241602302960357229e-01 0.000000000000000000e+00
Cu 2.374980622856384116e-01 5.228818433504713870e-01 0.000000000000000000e+00
Cu 2.373034752040621698e-01 6.216553711733044940e-01 0.000000000000000000e+00
Cu 2.371670434325873211e-01 7.204286745212558074e-01 0.000000000000000000e+00
Cu 2.373151649708437894e-01 8.190387072154577952e-01 0.000000000000000000e+00
Cu 2.378341324193587181e-01 9.175495380544032020e-01 0.000000000000000000e+00
Cu 3.587814450749942097e-01 3.153092698383862247e-02 0.000000000000000000e+00
Cu 3.580874748119458051e-01 1.296518900889755410e-01 0.000000000000000000e+00
Cu 3.575658799956987210e-01 2.278433969153504657e-01 0.000000000000000000e+00
Cu 3.572110004667305994e-01 3.261485567601989377e-01 0.000000000000000000e+00
Cu 3.569137309351586018e-01 4.245320175622364078e-01 0.000000000000000000e+00
Cu 3.565991561631871587e-01 5.229558036486513517e-01 0.000000000000000000e+00
Cu 3.563214401696693234e-01 6.214291038903421160e-01 0.000000000000000000e+00
Cu 3.561769331689891849e-01 7.199069091972540857e-01 0.000000000000000000e+00
Cu 3.562172836859526237e-01 8.183658716004673650e-01 0.000000000000000000e+00
Cu 3.564467996500766955e-01 9.168659799508473984e-01 0.000000000000000000e+00
Cu 4.782288247759765021e-01 3.245888841948171150e-02 0.000000000000000000e+00
Cu 4.776286568263449772e-01 1.305530572723333782e-01 0.000000000000000000e+00
Cu 4.771485512430183040e-01 2.286893187120597470e-01 0.000000000000000000e+00
Cu 4.767798919647658895e-01 3.268723484817316893e-01 0.000000000000000000e+00
Cu 4.764638058457690284e-01 4.250629422688460002e-01 0.000000000000000000e+00
Cu 4.760509873310636575e-01 5.231659657922089757e-01 0.000000000000000000e+00
Cu 4.755943205579255539e-01 6.212931717006063836e-01 0.000000000000000000e+00
Cu 4.752880352792538399e-01 7.195916790193502832e-01 0.000000000000000000e+00
Cu 4.751082759476926709e-01 8.180257256522127651e-01 0.000000000000000000e+00
Cu 4.750038898745766458e-01 9.165488099711422976e-01 0.000000000000000000e+00
Cu 5.977531603772406887e-01 3.327913643534750193e-02 0.000000000000000000e+00
Cu 5.972294148960113347e-01 1.313271409907451892e-01 0.000000000000000000e+00
Cu 5.968116378150952750e-01 2.294203970888891442e-01 0.000000000000000000e+00
Cu 5.965010673158097632e-01 3.275547613737501140e-01 0.000000000000000000e+00
Cu 5.962542090889463298e-01 4.256866558849062843e-01 0.000000000000000000e+00
Cu 5.959864222168108627e-01 5.237048832204058701e-01 0.000000000000000000e+00
Cu 5.952144262550492781e-01 6.213388159449798609e-01 0.000000000000000000e+00
Cu 5.943932621899467028e-01 7.193643209935002281e-01 0.000000000000000000e+00
Cu 5.939566837375972463e-01 8.180162346418595742e-01 0.000000000000000000e+00
Cu 5.935041169564820862e-01 9.167399624753356235e-01 0.000000000000000000e+00
Cu 7.174016451346505452e-01 3.401236414303134697e-02 0.000000000000000000e+00
Cu 7.169390968215331172e-01 1.319889320921106002e-01 0.000000000000000000e+00
Cu 7.165767403075626873e-01 2.300217625302336255e-01 0.000000000000000000e+00
Cu 7.163251042297843485e-01 3.281157632289475323e-01 0.000000000000000000e+00
Cu 7.161887633894740146e-01 4.262615231055567611e-01 0.000000000000000000e+00
Cu 7.160640988573576671e-01 5.243953845817675985e-01 0.000000000000000000e+00
Cu 7.159464205113813540e-01 6.223390352173580053e-01 0.000000000000000000e+00
Cu 7.135556252569278390e-01 7.188540372904508313e-01 0.000000000000000000e+00
Cu 7.119573322114484126e-01 8.181505052648668785e-01 0.000000000000000000e+00
Cu 7.123066251496094070e-01 9.177108381428240591e-01 0.000000000000000000e+00
Cu 8.372251642799743987e-01 3.467414874406560266e-02 0.000000000000000000e+00
Cu 8.368090047806658882e-01 1.325503948125353326e-01 0.000000000000000000e+00
Cu 8.364843672746543612e-01 2.304895409763199343e-01 0.000000000000000000e+00
Cu 8.362740338730800804e-01 3.285055470492928564e-01 0.000000000000000000e+00
Cu 8.361823755344419684e-01 4.266181297908567260e-01 0.000000000000000000e+00
Cu 8.362560035647150780e-01 5.248641109950443751e-01 0.000000000000000000e+00
Cu 8.361674060377856099e-01 6.232841517260268027e-01 0.000000000000000000e+00
Cu 8.370515631436706849e-01 7.219984202538342055e-01 0.000000000000000000e+00
Cu 8.248531744951012046e-01 8.163411853806639140e-01 0.000000000000000000e+00
Cu 8.339482673584607264e-01 9.164369354022331438e-01 0.000000000000000000e+00
Cu 9.572758710461242160e-01 3.528312426239400834e-02 0.000000000000000000e+00
Cu 9.568926879865069512e-01 1.330296454383625149e-01 0.000000000000000000e+00
Cu 9.565952027205980590e-01 2.308347994399455039e-01 0.000000000000000000e+00
Cu 9.564066079138227039e-01 3.287084889706570756e-01 0.000000000000000000e+00
Cu 9.563600367448977790e-01 4.266707114433198056e-01 0.000000000000000000e+00
Cu 9.564274319921121092e-01 5.247613607436462102e-01 0.000000000000000000e+00
Cu 9.569314994631319404e-01 6.230258178719401130e-01 0.000000000000000000e+00
Cu 9.566936101605715281e-01 7.215922478873688650e-01 0.000000000000000000e+00
Cu 9.696963325692914415e-01 8.156660611579057418e-01 0.000000000000000000e+00
Cu 9.615898592410956347e-01 9.157004884811037471e-01 0.000000000000000000e+00
Cu 1.077601248644622034e+00 3.586120985355436414e-02 0.000000000000000000e+00
Cu 1.077243011753476809e+00 1.334515534054516450e-01 0.000000000000000000e+00
Cu 1.076973200850599888e+00 2.310816340394546142e-01 0.000000000000000000e+00
Cu 1.076823680745352618e+00 3.287421217006168406e-01 0.000000000000000000e+00
Cu 1.076824151425644693e+00 4.264238678375633640e-01 0.000000000000000000e+00
Cu 1.077096397727732136e+00 5.240771046139861555e-01 0.000000000000000000e+00
Cu 1.077629752368557403e+00 6.215432458470621091e-01 0.000000000000000000e+00
Cu 1.080674657757509705e+00 7.175824978389787612e-01 0.000000000000000000e+00
Cu 1.083125307322294395e+00 8.164176502784450395e-01 0.000000000000000000e+00
Cu 1.083816092852261104e+00 9.155430478737901501e-01 0.000000000000000000e+00
Cu 1.198237358043166223e+00 3.643186079081427164e-02 0.000000000000000000e+00
Cu 1.197903407374323770e+00 1.338469086888085524e-01 0.000000000000000000e+00
Cu 1.197679199773705294e+00 2.312674853743471037e-01 0.000000000000000000e+00
Cu 1.197596770244407471e+00 3.286578569122383109e-01 0.000000000000000000e+00
Cu 1.197722840534419131e+00 4.259743649209747907e-01 0.000000000000000000e+00
Cu 1.198146349500823549e+00 5.231411181647837028e-01 0.000000000000000000e+00
Cu 1.199343795751692809e+00 6.199364938159279692e-01 0.000000000000000000e+00
Cu 1.200841096445956380e+00 7.171683545608282806e-01 0.000000000000000000e+00
Cu 1.202178940365478343e+00 8.150809844611457411e-01 0.000000000000000000e+00
Cu 1.203701384396744789e+00 9.130870343320313109e-01 0.000000000000000000e+00
Cu 1.319200061744944197e+00 3.701698102145998398e-02 0.000000000000000000e+00
Cu 1.318901042573937810e+00 1.342503489994110455e-01 0.000000000000000000e+00
Cu 1.318751513915992657e+00 2.314435137207329629e-01 0.000000000000000000e+00
Cu 1.318776493748731626e+00 3.285390050478458335e-01 0.000000000000000000e+00
Cu 1.319022492314228634e+00 4.254997352124001431e-01 0.000000000000000000e+00
Cu 1.319610528704197483e+00 5.223040644181817793e-01 0.000000000000000000e+00
Cu 1.320481660348748365e+00 6.191690267370404399e-01 0.000000000000000000e+00
Cu 1.321459172143189642e+00 7.163193141497494754e-01 0.000000000000000000e+00
Cu 1.322562045835599109e+00 8.137243313818154355e-01 0.000000000000000000e+00
Cu 1.323808052079924247e+00 9.112776834564045858e-01 0.000000000000000000e+00
Cu 1.440476969438250210e+00 3.762949607976715655e-02 0.000000000000000000e+00
Cu 1.440239237696353536e+00 1.346922607389706428e-01 0.000000000000000000e+00
Cu 1.440207762670812741e+00 2.316623607285293318e-01 0.000000000000000000e+00
Cu 1.440366263642155253e+00 3.284761432556267402e-01 0.000000000000000000e+00
Cu 1.440717168856384456e+00 4.251317439536905218e-01 0.000000000000000000e+00
Cu 1.441235706580046516e+00 5.217326260932175774e-01 0.000000000000000000e+00
Cu 1.441862012688977401e+00 6.184401201882538945e-01 0.000000000000000000e+00
Cu 1.442584042447824455e+00 7.153529140731850200e-01 0.000000000000000000e+00
Cu 1.443438958454823506e+00 8.124835653507770372e-01 0.000000000000000000e+00
Cu 1.444430958312935109e+00 9.097885381302877050e-01 0.000000000000000000e+00
Cu 1.562021547412459466e+00 3.825897032578430557e-02 0.000000000000000000e+00
Cu 1.561897962452024391e+00 1.351803264403258487e-01 0.000000000000000000e+00
Cu 1.562047783336943274e+00 2.319505614937093785e-01 0.000000000000000000e+00
Cu 1.562383104128603595e+00 3.285102077238152285e-01 0.000000000000000000e+00
Cu 1.562811240517083311e+00 4.249012771874462469e-01 0.000000000000000000e+00
Cu 1.563250576197294128e+00 5.212504586058719358e-01 0.000000000000000000e+00
Cu 1.563675205437520255e+00 6.177062474465334629e-01 0.000000000000000000e+00
Cu 1.564132268678198434e+00 7.143764678827528858e-01 0.000000000000000000e+00
Cu 1.564704862119759898e+00 8.112989808990050955e-01 0.000000000000000000e+00
Cu 1.565472128125411588e+00 9.084203503990276873e-01 0.000000000000000000e+00
Cu 1.683751695967804274e+00 3.885067758011660766e-02 0.000000000000000000e+00
Cu 1.683839132492639390e+00 1.356740952881300699e-01 0.000000000000000000e+00
Cu 1.684275168669358225e+00 2.322718400908317105e-01 0.000000000000000000e+00
Cu 1.684866726092592693e+00 3.286020510763082991e-01 0.000000000000000000e+00
Cu 1.685420984909876685e+00 4.247392267548359412e-01 0.000000000000000000e+00
Cu 1.685802242180618027e+00 5.208249973190348658e-01 0.000000000000000000e+00
Cu 1.685995829112643563e+00 6.170163215805956058e-01 0.000000000000000000e+00
Cu 1.686110446611193581e+00 7.134459676172684173e-01 0.000000000000000000e+00
Cu 1.686319270182178309e+00 8.101794131667353627e-01 0.000000000000000000e+00
Cu 1.686804391080946264e+00 9.071682590260792267e-01 0.000000000000000000e+00
Cu 1.805547048175962122e+00 3.928042317090632563e-02 0.000000000000000000e+00
Cu 1.806019307934390472e+00 1.360572834628418493e-01 0.000000000000000000e+00
Cu 1.806913646498066850e+00 2.324960319968879252e-01 0.000000000000000000e+00
Cu 1.807887425224700362e+00 3.286161630548706247e-01 0.000000000000000000e+00
Cu 1.808634639891681939e+00 4.245667707390107237e-01 0.000000000000000000e+00
Cu 1.808974181064638920e+00 5.204878200364225771e-01 0.000000000000000000e+00
Cu 1.808894146172439044e+00 6.164806842236154605e-01 0.000000000000000000e+00
Cu 1.808553440537812529e+00 7.126809102425262221e-01 0.000000000000000000e+00
Cu 1.808240541064632723e+00 8.092301510461152869e-01 0.000000000000000000e+00
Cu 1.808286300235637523e+00 9.061394074606216043e-01 0.000000000000000000e+00
Cu 1.927230735961220409e+00 3.931696543165839886e-02 0.000000000000000000e+00
Cu 1.928411034829098147e+00 1.361002919180336335e-01 0.000000000000000000e+00
Cu 1.930037659747507073e+00 2.323587702689042245e-01 0.000000000000000000e+00
Cu 1.931510586053658329e+00 3.283202105167987161e-01 0.000000000000000000e+00
Cu 1.932446729951419639e+00 4.242844859247744682e-01 0.000000000000000000e+00
Cu 1.932757644785341400e+00 5.203089020208606641e-01 0.000000000000000000e+00
Cu 1.932431802686317202e+00 6.163053314538958771e-01 0.000000000000000000e+00
Cu 1.931536593013730485e+00 7.123281032859235529e-01 0.000000000000000000e+00
Cu 1.930439954692205307e+00 8.086716235565553079e-01 0.000000000000000000e+00
Cu 1.929732236407404988e+00 9.055568213252491727e-01 0.000000000000000000e+00
Cu 2.048498072308806428e+00 3.852219289061054736e-02 0.000000000000000000e+00
Cu 2.051068109590142630e+00 1.353566770986784629e-01 0.000000000000000000e+00
Cu 2.053814546226775395e+00 2.313879490053348809e-01 0.000000000000000000e+00
Cu 2.055717866085399415e+00 3.274428756596592938e-01 0.000000000000000000e+00
Cu 2.056703622921482122e+00 4.238267634108812687e-01 0.000000000000000000e+00
Cu 2.056996837280286261e+00 5.203292291469858721e-01 0.000000000000000000e+00
Cu 2.056585902360954510e+00 6.167390465867171878e-01 0.000000000000000000e+00
Cu 2.055223826417912569e+00 7.128429023406464005e-01 0.000000000000000000e+00
Cu 2.052968239485443824e+00 8.089401710545927049e-01 0.000000000000000000e+00
Cu 2.050832729912956509e+00 9.058515617087548044e-01 0.000000000000000000e+00
Cu 2.168684660744724990e+00 3.585830877307948777e-02 0.000000000000000000e+00
Cu 2.174372190518588432e+00 1.327600106093609067e-01 0.000000000000000000e+00
Cu 2.178332675925580997e+00 2.289902556579250792e-01 0.000000000000000000e+00
Cu 2.180215186216630130e+00 3.259878586293416536e-01 0.000000000000000000e+00
Cu 2.181183651563877390e+00 4.232147667561924620e-01 0.000000000000000000e+00
Cu 2.181467053521668031e+00 5.205036326089951260e-01 0.000000000000000000e+00
Cu 2.181054775718684002e+00 6.177571240063784996e-01 0.000000000000000000e+00
Cu 2.179696004700324874e+00 7.148022374604328100e-01 0.000000000000000000e+00
Cu 2.176205159837624414e+00 8.110942074386523482e-01 0.000000000000000000e+00
Cu 2.170922212193387324e+00 9.080586818046673114e-01 0.000000000000000000e+00
Cu 2.285921596902483088e+00 2.653862175281897565e-02 0.000000000000000000e+00
Cu 2.298875359125913675e+00 1.264646707782010604e-01 0.000000000000000000e+00
Cu 2.302723127856953766e+00 2.257592499676503994e-01 0.000000000000000000e+00
Cu 2.304771455826691184e+00 3.243454399859372894e-01 0.000000000000000000e+00
Cu 2.305749688428739841e+00 4.225634302568385681e-01 0.000000000000000000e+00
Cu 2.306027368997145555e+00 5.206929068538809213e-01 0.000000000000000000e+00
Cu 2.305595603404272165e+00 6.189459044135179333e-01 0.000000000000000000e+00
Cu 2.304067385180641470e+00 7.175959286835109641e-01 0.000000000000000000e+00
Cu 2.300694088189284781e+00 8.169683500690411160e-01 0.000000000000000000e+00
Cu 2.288149404104474538e+00 9.169817525812502534e-01 0.000000000000000000e+00
