200

Cu 0.000000000000000000e+00 3.615604512813252319e-02 0.000000000000000000e+00
Cu 0.000000000000000000e+00 1.344404127435272767e-01 0.000000000000000000e+00
Cu 0.000000000000000000e+00 2.316954295398297725e-01 0.000000000000000000e+00
Cu 0.000000000000000000e+00 3.284846189091661928e-01 0.000000000000000000e+00
Cu 0.000000000000000000e+00 4.251167508412515006e-01 0.000000000000000000e+00
Cu 0.000000000000000000e+00 5.217472282266421013e-01 0.000000000000000000e+00
Cu 0.000000000000000000e+00 6.185004135322459407e-01 0.000000000000000000e+00
Cu 0.000000000000000000e+00 7.155158627260295168e-01 0.000000000000000000e+00
Cu 0.000000000000000000e+00 8.130695901651846524e-01 0.000000000000000000e+00
Cu 0.000000000000000000e+00 9.116737450144298816e-01 0.000000000000000000e+00
Cu 1.252037851483603359e-01 4.016934216128065227e-02 0.000000000000000000e+00
Cu 1.240688536073371734e-01 1.358252052351986428e-01 0.000000000000000000e+00
Cu 1.240055156709599510e-01 2.322756286748832166e-01 0.000000000000000000e+00
Cu 1.239508070483065633e-01 3.287654327982391100e-01 0.000000000000000000e+00
Cu 1.238667108503331976e-01 4.252169405233821031e-01 0.000000000000000000e+00
Cu 1.237433143717341089e-01 5.216978881698968173e-01 0.000000000000000000e+00
Cu 1.235893997977883935e-01 6.182789911972063068e-01 0.000000000000000000e+00
Cu 1.234290083078472128e-01 7.150115536022076945e-01 0.000000000000000000e+00
Cu 1.233081273014159929e-01 8.118006728492362933e-01 0.000000000000000000e+00
Cu 1.242534603799390208e-01 9.078981318141839951e-01 0.000000000000000000e+00
Cu 2.499039150673021958e-01 4.207063188935068754e-02 0.000000000000000000e+00
Cu 2.489335461977740804e-01 1.375798019160455188e-01 0.000000000000000000e+00
Cu 2.483957528308796958e-01 2.333234213564442661e-01 0.000000000000000000e+00
Cu 2.481696603042892468e-01 3.293639831736848711e-01 0.000000000000000000e+00
Cu 2.479501982724982012e-01 4.254998078271249318e-01 0.000000000000000000e+00
Cu 2.476946218307581604e-01 5.216984659289396475e-01 0.000000000000000000e+00
Cu 2.474279179536975348e-01 6.179681876254355943e-01 0.000000000000000000e+00
Cu 2.472211779015232869e-01 7.142552618722233237e-01 0.000000000000000000e+00
Cu 2.473692231004719910e-01 8.103561747588541309e-01 0.000000000000000000e+00
Cu 2.479885705944993302e-01 9.063307662826844968e-01 0.000000000000000000e+00
Cu 3.745146567352196088e-01 4.344256286382730536e-02 0.000000000000000000e+00
Cu 3.737161895229713648e-01 1.389236307181512808e-01 0.000000000000000000e+00
Cu 3.731204237824053971e-01 2.344843050017202668e-01 0.000000000000000000e+00
Cu 3.727181138046244957e-01 3.301800173254327286e-01 0.000000000000000000e+00
Cu 3.723661030307227615e-01 4.259629974425106491e-01 0.000000000000000000e+00
Cu 3.719643002426830103e-01 5.217867100636700561e-01 0.000000000000000000e+00
Cu 3.715781690118852287e-01 6.176734237542365058e-01 0.000000000000000000e+00
Cu 3.713378065638879288e-01 7.135819849561977346e-01 0.000000000000000000e+00
Cu 3.713291488643480354e-01 8.094890052766892108e-01 0.000000000000000000e+00
Cu 3.715716311226645030e-01 9.054617714276547158e-01 0.000000000000000000e+00
Cu 4.991389559759560890e-01 4.455882195632903525e-02 0.000000000000000000e+00
Cu 4.984761430879908750e-01 1.400180464368574185e-01 0.000000000000000000e+00
Cu 4.979452293496114956e-01 2.355174193006843997e-01 0.000000000000000000e+00
Cu 4.975334361731701960e-01 3.310664736196477498e-01 0.000000000000000000e+00
Cu 4.971677127322493561e-01 4.266202906372572046e-01 0.000000000000000000e+00
Cu 4.966464132558951472e-01 5.220547959383201597e-01 0.000000000000000000e+00
Cu 4.960258585437806733e-01 6.175082562484510706e-01 0.000000000000000000e+00
Cu 4.955540433641095754e-01 7.131864734699806530e-01 0.000000000000000000e+00
Cu 4.952331144029085142e-01 8.090652544491556686e-01 0.000000000000000000e+00
Cu 4.950372916858675754e-01 9.050924453578094164e-01 0.000000000000000000e+00
Cu 6.238238510084475053e-01 4.550126953402691687e-02 0.000000000000000000e+00
Cu 6.232761439856979724e-01 1.409234941881164493e-01 0.000000000000000000e+00
Cu 6.228370917337973101e-01 2.363871951926653503e-01 0.000000000000000000e+00
Cu 6.225074644866196438e-01 3.318920068514097377e-01 0.000000000000000000e+00
Cu 6.222255240392016162e-01 4.273871790066215426e-01 0.000000000000000000e+00
Cu 6.219049423837369472e-01 5.227442498915300106e-01 0.000000000000000000e+00
Cu 6.208761160387508138e-01 6.175950843477355789e-01 0.000000000000000000e+00
Cu 6.197384354433578268e-01 7.129244022211856935e-01 0.000000000000000000e+00
Cu 6.190377038463674708e-01 8.090857530935952058e-01 0.000000000000000000e+00
Cu 6.183453899956988797e-01 9.053885049654165629e-01 0.000000000000000000e+00
Cu 7.486150913431377507e-01 4.629686746337659253e-02 0.000000000000000000e+00
Cu 7.481651956546719884e-01 1.416581008644542394e-01 0.000000000000000000e+00
Cu 7.478127967701388989e-01 2.370738407069196974e-01 0.000000000000000000e+00
Cu 7.475665181312854957e-01 3.325549839204291480e-01 0.000000000000000000e+00
Cu 7.474351711864535286e-01 4.280953088697768694e-01 0.000000000000000000e+00
Cu 7.472614478788055514e-01 5.236163921750109917e-01 0.000000000000000000e+00
Cu 7.471543245918931264e-01 6.189252767055336557e-01 0.000000000000000000e+00
Cu 7.438924459810962730e-01 7.123301963653950741e-01 0.000000000000000000e+00
Cu 7.417854249331986560e-01 8.093161274876823352e-01 0.000000000000000000e+00
Cu 7.418621742278469489e-01 9.067852688809835415e-01 0.000000000000000000e+00
Cu 8.735636153556505246e-01 4.696282629820398846e-02 0.000000000000000000e+00
Cu 8.731953536588873410e-01 1.422334715200092858e-01 0.000000000000000000e+00
Cu 8.729087458370407004e-01 2.375667503564093674e-01 0.000000000000000000e+00
Cu 8.727312489944333285e-01 3.329858373775529401e-01 0.000000000000000000e+00
Cu 8.726580533823178332e-01 4.285206564874783353e-01 0.000000000000000000e+00
Cu 8.727760403446076509e-01 5.242248097101449567e-01 0.000000000000000000e+00
Cu 8.725464839784542459e-01 6.201519197085280100e-01 0.000000000000000000e+00
Cu 8.739625741109622314e-01 7.165411938156800442e-01 0.000000000000000000e+00
Cu 8.573247845586082772e-01 8.070692498782160440e-01 0.000000000000000000e+00
Cu 8.691878424225738531e-01 9.053414246188558057e-01 0.000000000000000000e+00
Cu 9.987236451055241382e-01 4.751979953890208414e-02 0.000000000000000000e+00
Cu 9.984214447766405209e-01 1.426685377143859235e-01 0.000000000000000000e+00
Cu 9.981896588550486227e-01 2.378743955988001368e-01 0.000000000000000000e+00
Cu 9.980536365652407094e-01 3.331556965970084994e-01 0.000000000000000000e+00
Cu 9.980604229049655496e-01 4.285427050691054673e-01 0.000000000000000000e+00
Cu 9.981432243957248929e-01 5.240930146775141241e-01 0.000000000000000000e+00
Cu 9.988357290893671303e-01 6.198655526213577849e-01 0.000000000000000000e+00
Cu 9.980922883769508536e-01 7.161169616454144959e-01 0.000000000000000000e+00
Cu 1.015522283668071069e+00 8.063414614003003855e-01 0.000000000000000000e+00
Cu 1.004635916760282743e+00 9.045882447176188945e-01 0.000000000000000000e+00
Cu 1.124144981476493887e+00 4.799414180672734176e-02 0.000000000000000000e+00
Cu 1.123898985688878360e+00 1.429927741800361696e-01 0.000000000000000000e+00
Cu 1.123721117345213516e+00 2.380252353151363909e-01 0.000000000000000000e+00
Cu 1.123651728606009703e+00 3.330854318322337693e-01 0.000000000000000000e+00
Cu 1.123719579636499377e+00 4.281672865028496866e-01 0.000000000000000000e+00
Cu 1.124101703130982788e+00 5.232095381525456723e-01 0.000000000000000000e+00
Cu 1.124668751973429526e+00 6.180452319415266071e-01 0.000000000000000000e+00
Cu 1.128610611555051157e+00 7.109769809562139775e-01 0.000000000000000000e+00
Cu 1.131575084637200135e+00 8.075076915732265492e-01 0.000000000000000000e+00
Cu 1.132523922619718126e+00 9.045535528678556592e-01 0.000000000000000000e+00
Cu 1.249864892969539731e+00 4.841678054512327939e-02 0.000000000000000000e+00
Cu 1.249671431373164054e+00 1.432460239675733549e-01 0.000000000000000000e+00
Cu 1.249567551809566801e+00 2.380686871028097062e-01 0.000000000000000000e+00
Cu 1.249591276660013239e+00 3.328466179048774620e-01 0.000000000000000000e+00
Cu 1.249828204064008963e+00 4.275286406996935407e-01 0.000000000000000000e+00
Cu 1.250365378098242886e+00 5.220291461157308133e-01 0.000000000000000000e+00
Cu 1.251865020336580425e+00 6.160387235880836476e-01 0.000000000000000000e+00
Cu 1.253708297611268119e+00 7.105808119979422077e-01 0.000000000000000000e+00
Cu 1.255324877051439580e+00 8.060199181438865157e-01 0.000000000000000000e+00
Cu 1.257071263737961297e+00 9.016298952585701798e-01 0.000000000000000000e+00
Cu 1.375897076028005150e+00 4.881955229577691208e-02 0.000000000000000000e+00
Cu 1.375763656318364392e+00 1.434753441056131895e-01 0.000000000000000000e+00
Cu 1.375762041728880281e+00 2.380735056441015407e-01 0.000000000000000000e+00
Cu 1.375924879499236919e+00 3.325495520730678001e-01 0.000000000000000000e+00
Cu 1.376305106433048264e+00 4.268611510100436268e-01 0.000000000000000000e+00
Cu 1.377065934717796036e+00 5.209715099572538310e-01 0.000000000000000000e+00
Cu 1.378143600397397472e+00 6.151431464668639659e-01 0.000000000000000000e+00
Cu 1.379316155414023193e+00 7.096743570521300004e-01 0.000000000000000000e+00
Cu 1.380579046389091680e+00 8.045489561307727078e-01 0.000000000000000000e+00
Cu 1.381916488383777342e+00 8.996451552261762741e-01 0.000000000000000000e+00
Cu 1.502223100281540269e+00 4.922571929711966332e-02 0.000000000000000000e+00
Cu 1.502172335863741326e+00 1.437242857018104780e-01 0.000000000000000000e+00
Cu 1.502316313535035475e+00 2.381095086752474665e-01 0.000000000000000000e+00
Cu 1.502638781928738343e+00 3.323104037412666911e-01 0.000000000000000000e+00
Cu 1.503149076317371824e+00 4.263223934310471641e-01 0.000000000000000000e+00
Cu 1.503824337401195477e+00 5.202643517379317295e-01 0.000000000000000000e+00
Cu 1.504592007733809744e+00 6.143328759243246173e-01 0.000000000000000000e+00
Cu 1.505425581310327887e+00 7.086565883001483268e-01 0.000000000000000000e+00
Cu 1.506350259952484949e+00 8.032600200971429238e-01 0.000000000000000000e+00
Cu 1.507353731974054423e+00 8.980896454174233101e-01 0.000000000000000000e+00
Cu 1.628785931045966029e+00 4.963251156332849912e-02 0.000000000000000000e+00
Cu 1.628868753800361446e+00 1.440104264509627086e-01 0.000000000000000000e+00
Cu 1.629220698405829504e+00 2.382155774991765729e-01 0.000000000000000000e+00
Cu 1.629744954773506338e+00 3.321815524671514197e-01 0.000000000000000000e+00
Cu 1.630340054684426443e+00 4.259562875471537002e-01 0.000000000000000000e+00
Cu 1.630913952500093300e+00 5.196852545698147363e-01 0.000000000000000000e+00
Cu 1.631431575419948432e+00 6.135411181527388180e-01 0.000000000000000000e+00
Cu 1.631936072204419164e+00 7.076515401125360594e-01 0.000000000000000000e+00
Cu 1.632511220302280908e+00 8.020624777012358431e-01 0.000000000000000000e+00
Cu 1.633237794973991353e+00 8.967111161116962936e-01 0.000000000000000000e+00
Cu 1.755488705535622751e+00 4.998651063039696862e-02 0.000000000000000000e+00
Cu 1.755803820264820958e+00 1.442967081723925127e-01 0.000000000000000000e+00
Cu 1.756472567513640337e+00 2.383587605795692843e-01 0.000000000000000000e+00
Cu 1.757277610130373313e+00 3.321256102175637048e-01 0.000000000000000000e+00
Cu 1.758004480412841630e+00 4.256817470607373588e-01 0.000000000000000000e+00
Cu 1.758501327928919444e+00 5.191859929908700932e-01 0.000000000000000000e+00
Cu 1.758746382533317831e+00 6.128135349919271446e-01 0.000000000000000000e+00
Cu 1.758852184502785132e+00 7.067129352972794099e-01 0.000000000000000000e+00
Cu 1.759005188539548792e+00 8.009575508722375226e-01 0.000000000000000000e+00
Cu 1.759406144965775187e+00 8.954902579036324584e-01 0.000000000000000000e+00
Cu 1.882190307621601111e+00 5.015496845975261908e-02 0.000000000000000000e+00
Cu 1.882921333371225137e+00 1.444608127851716717e-01 0.000000000000000000e+00
Cu 1.884091209591035154e+00 2.384023898658283735e-01 0.000000000000000000e+00
Cu 1.885311526455783815e+00 3.319967330035987207e-01 0.000000000000000000e+00
Cu 1.886242254154707920e+00 4.254089774619145281e-01 0.000000000000000000e+00
Cu 1.886682709918343859e+00 5.187940396691855804e-01 0.000000000000000000e+00
Cu 1.886615076963832127e+00 6.122631839990659852e-01 0.000000000000000000e+00
Cu 1.886207305029549586e+00 7.059653248965439554e-01 0.000000000000000000e+00
Cu 1.885774249177290862e+00 8.000555962357068784e-01 0.000000000000000000e+00
Cu 1.885687307357177822e+00 8.945392909698082207e-01 0.000000000000000000e+00
Cu 2.008681734893686510e+00 4.988338332304752265e-02 0.000000000000000000e+00
Cu 2.010177742461868977e+00 1.442546423533591360e-01 0.000000000000000000e+00
Cu 2.012152267731752708e+00 2.380607436420504874e-01 0.000000000000000000e+00
Cu 2.013922748640148974e+00 3.315407467163912214e-01 0.000000000000000000e+00
Cu 2.015057464383978036e+00 4.250260336320661470e-01 0.000000000000000000e+00
Cu 2.015459012435513397e+00 5.185822647366411520e-01 0.000000000000000000e+00
Cu 2.015110442466241825e+00 6.121111334817785909e-01 0.000000000000000000e+00
Cu 2.014078167248533724e+00 7.056740234780052301e-01 0.000000000000000000e+00
Cu 2.012771654141649602e+00 7.995946871829449076e-01 0.000000000000000000e+00
Cu 2.011859268050490979e+00 8.941029623048576402e-01 0.000000000000000000e+00
Cu 2.134596388924233867e+00 4.868489464517390675e-02 0.000000000000000000e+00
Cu 2.137608873891779115e+00 1.431909851711960224e-01 0.000000000000000000e+00
Cu 2.140841879148348781e+00 2.368110282890613649e-01 0.000000000000000000e+00
Cu 2.143107256952443862e+00 3.304487806966636687e-01 0.000000000000000000e+00
Cu 2.144297327396519570e+00 4.244565298542529175e-01 0.000000000000000000e+00
Cu 2.144674908846880612e+00 5.185948184704609609e-01 0.000000000000000000e+00
Cu 2.144223016927179870e+00 6.126377916491783093e-01 0.000000000000000000e+00
Cu 2.142646862820537290e+00 7.063419393443614025e-01 0.000000000000000000e+00
Cu 2.140029227395153111e+00 8.000509777534828837e-01 0.000000000000000000e+00
Cu 2.137548854831931688e+00 8.946604777859140656e-01 0.000000000000000000e+00
Cu 2.259100664059926711e+00 4.539440607345129886e-02 0.000000000000000000e+00
Cu 2.265617235390122719e+00 1.400859130804182340e-01 0.000000000000000000e+00
Cu 2.270308290268488349e+00 2.339529456079622316e-01 0.000000000000000000e+00
Cu 2.272549007164063273e+00 3.287134511271785908e-01 0.000000000000000000e+00
Cu 2.273738850674764223e+00 4.237152472739590392e-01 0.000000000000000000e+00
Cu 2.274103388395500858e+00 5.187850520127770260e-01 0.000000000000000000e+00
Cu 2.273627064635379114e+00 6.138235030760448296e-01 0.000000000000000000e+00
Cu 2.272052208988894595e+00 7.086489644310763891e-01 0.000000000000000000e+00
Cu 2.267947973007053530e+00 8.026003803771677436e-01 0.000000000000000000e+00
Cu 2.261921921377825662e+00 8.973758469115862280e-01 0.000000000000000000e+00
Cu 2.379633419453782928e+00 3.449367060919005662e-02 0.000000000000000000e+00
Cu 2.395079478222757352e+00 1.326976263453092109e-01 0.000000000000000000e+00
Cu 2.399553057374776976e+00 2.301676081993295209e-01 0.000000000000000000e+00
Cu 2.402037212868278981e+00 3.267689832611070377e-01 0.000000000000000000e+00
Cu 2.403237716287645931e+00 4.229305880570915499e-01 0.000000000000000000e+00
Cu 2.403595100410388596e+00 5.189915335285977260e-01 0.000000000000000000e+00
Cu 2.403096013801569786e+00 6.152020720274673504e-01 0.000000000000000000e+00
Cu 2.401273983552487667e+00 7.118926833512477792e-01 0.000000000000000000e+00
Cu 2.397394126466433129e+00 8.094700885604446672e-01 0.000000000000000000e+00
Cu 2.382443850965393572e+00 9.077956910531108647e-01 0.000000000000000000e+00
