200

Cu 0.000000000000000000e+00 1.314168149471312171e-02 0.000000000000000000e+00
Cu 0.000000000000000000e+00 1.182983233079538399e-01 0.000000000000000000e+00
Cu 0.000000000000000000e+00 2.234723066492785570e-01 0.000000000000000000e+00
Cu 0.000000000000000000e+00 3.286741076824256091e-01 0.000000000000000000e+00
Cu 0.000000000000000000e+00 4.339064047065739893e-01 0.000000000000000000e+00
Cu 0.000000000000000000e+00 5.391679011897388962e-01 0.000000000000000000e+00
Cu 0.000000000000000000e+00 6.444565286938284121e-01 0.000000000000000000e+00
Cu 0.000000000000000000e+00 7.497704748856235391e-01 0.000000000000000000e+00
Cu 0.000000000000000000e+00 8.551069410797474957e-01 0.000000000000000000e+00
Cu 0.000000000000000000e+00 9.604595077475547305e-01 0.000000000000000000e+00
Cu 1.056582273754744783e-01 1.326118199143182068e-02 0.000000000000000000e+00
Cu 1.055518360164336977e-01 1.183586692685203445e-01 0.000000000000000000e+00
Cu 1.054730946686605886e-01 2.235185451258838163e-01 0.000000000000000000e+00
Cu 1.053979474246498627e-01 3.287185910538289457e-01 0.000000000000000000e+00
Cu 1.053249369053285006e-01 4.339525004501519345e-01 0.000000000000000000e+00
Cu 1.052533610550923510e-01 5.392167183937746078e-01 0.000000000000000000e+00
Cu 1.051820486121221171e-01 6.445082828447337153e-01 0.000000000000000000e+00
Cu 1.051089140671296052e-01 7.498259792700018300e-01 0.000000000000000000e+00
Cu 1.050302064367682614e-01 8.551742320190868218e-01 0.000000000000000000e+00
Cu 1.049214115660163232e-01 9.605763398074997905e-01 0.000000000000000000e+00
Cu 2.113024950292498316e-01 1.341534035562333589e-02 0.000000000000000000e+00
Cu 2.111183705071335015e-01 1.185167185885444702e-01 0.000000000000000000e+00
Cu 2.109486188450732103e-01 2.236658092250885521e-01 0.000000000000000000e+00
Cu 2.107930035633964749e-01 3.288635169428999472e-01 0.000000000000000000e+00
Cu 2.106449020542046913e-01 4.341005483343783888e-01 0.000000000000000000e+00
Cu 2.105017261169421505e-01 5.393704332484218211e-01 0.000000000000000000e+00
Cu 2.103601677486146571e-01 6.446687004241701269e-01 0.000000000000000000e+00
Cu 2.102142454737534194e-01 7.499942117747029346e-01 0.000000000000000000e+00
Cu 2.100518638850464581e-01 8.553524485794915533e-01 0.000000000000000000e+00
Cu 2.098649403503673738e-01 9.607460127528646421e-01 0.000000000000000000e+00
Cu 3.169337556002828626e-01 1.364459942576850410e-02 0.000000000000000000e+00
Cu 3.166712905655350574e-01 1.187515352788121314e-01 0.000000000000000000e+00
Cu 3.164190048467523386e-01 2.239048892799982149e-01 0.000000000000000000e+00
Cu 3.161805880159686555e-01 3.291044266150473518e-01 0.000000000000000000e+00
Cu 3.159557643622840084e-01 4.343462408536480357e-01 0.000000000000000000e+00
Cu 3.157415205441739814e-01 5.396233805279421203e-01 0.000000000000000000e+00
Cu 3.155330010037659672e-01 6.449297876772069893e-01 0.000000000000000000e+00
Cu 3.153209690725117254e-01 7.502615452004371965e-01 0.000000000000000000e+00
Cu 3.150936978277945610e-01 8.556164271781870889e-01 0.000000000000000000e+00
Cu 3.148400400648621589e-01 9.609965331296239643e-01 0.000000000000000000e+00
Cu 4.225503316006836707e-01 1.395168374768641743e-02 0.000000000000000000e+00
Cu 4.222070202325662325e-01 1.190658597918491379e-01 0.000000000000000000e+00
Cu 4.218730083405713427e-01 2.242269986161266881e-01 0.000000000000000000e+00
Cu 4.215541676764817391e-01 3.294339235897397189e-01 0.000000000000000000e+00
Cu 4.212534529237239589e-01 4.346822302899634449e-01 0.000000000000000000e+00
Cu 4.209706483629986895e-01 5.399656523387424967e-01 0.000000000000000000e+00
Cu 4.207017732457826176e-01 6.452770822522981842e-01 0.000000000000000000e+00
Cu 4.204377477842946575e-01 7.506092629761846879e-01 0.000000000000000000e+00
Cu 4.201634404808717305e-01 8.559559805951542089e-01 0.000000000000000000e+00
Cu 4.198599408823818213e-01 9.613166442643970022e-01 0.000000000000000000e+00
Cu 5.281512185903843859e-01 1.433822509490323763e-02 0.000000000000000000e+00
Cu 5.277234548862805852e-01 1.194593625019514521e-01 0.000000000000000000e+00
Cu 5.273055672865782917e-01 2.246291003155750365e-01 0.000000000000000000e+00
Cu 5.269074686051778977e-01 3.298448940509371985e-01 0.000000000000000000e+00
Cu 5.265349379013961606e-01 4.350997542527326734e-01 0.000000000000000000e+00
Cu 5.261896486445764021e-01 5.403847167698599963e-01 0.000000000000000000e+00
Cu 5.258700878524046329e-01 6.456924636495326997e-01 0.000000000000000000e+00
Cu 5.255685597455542757e-01 7.510162762795856706e-01 0.000000000000000000e+00
Cu 5.252675315486245999e-01 8.563496360230009596e-01 0.000000000000000000e+00
Cu 5.249390450271402830e-01 9.616855804107293793e-01 0.000000000000000000e+00
Cu 6.337378463186026378e-01 1.480745546676595463e-02 0.000000000000000000e+00
Cu 6.332199287753554895e-01 1.199334920444283109e-01 0.000000000000000000e+00
Cu 6.327135696193886272e-01 2.251091804789025763e-01 0.000000000000000000e+00
Cu 6.322363406904937255e-01 3.303318542139643266e-01 0.000000000000000000e+00
Cu 6.317983615326830948e-01 4.355898190924580859e-01 0.000000000000000000e+00
Cu 6.314030371169959688e-01 5.408685864417085432e-01 0.000000000000000000e+00
Cu 6.310458267414602584e-01 6.461561533681761116e-01 0.000000000000000000e+00
Cu 6.307195147302154803e-01 7.514551085994419788e-01 0.000000000000000000e+00
Cu 6.304096429563327275e-01 8.567635278539583732e-01 0.000000000000000000e+00
Cu 6.300896498975681048e-01 9.620716428798181674e-01 0.000000000000000000e+00
Cu 7.393123354736831354e-01 1.536657412656728013e-02 0.000000000000000000e+00
Cu 7.386983730579592677e-01 1.204943888185144307e-01 0.000000000000000000e+00
Cu 7.380969221348607778e-01 2.256687689053648860e-01 0.000000000000000000e+00
Cu 7.375371744811277663e-01 3.308896113271021511e-01 0.000000000000000000e+00
Cu 7.370430738901262435e-01 4.361437097764692128e-01 0.000000000000000000e+00
Cu 7.366176205801163723e-01 5.414018040214471084e-01 0.000000000000000000e+00
Cu 7.362489280587615204e-01 6.466516978950375139e-01 0.000000000000000000e+00
Cu 7.359025422494285262e-01 7.518942250526076121e-01 0.000000000000000000e+00
Cu 7.355950533020180204e-01 8.571593306569305071e-01 0.000000000000000000e+00
Cu 7.353199067637365971e-01 9.624108079185852427e-01 0.000000000000000000e+00
Cu 8.448736136749612768e-01 1.602284899233493570e-02 0.000000000000000000e+00
Cu 8.441608745543165426e-01 1.211540919237029806e-01 0.000000000000000000e+00
Cu 8.434617089225694420e-01 2.263191573984126570e-01 0.000000000000000000e+00
Cu 8.428110728994758771e-01 3.315180890797311264e-01 0.000000000000000000e+00
Cu 8.422647263460825151e-01 4.367461203068669362e-01 0.000000000000000000e+00
Cu 8.418540053423521075e-01 5.419631365216218688e-01 0.000000000000000000e+00
Cu 8.414946018100211145e-01 6.471403189147283408e-01 0.000000000000000000e+00
Cu 8.411383870182421729e-01 7.523578664844182695e-01 0.000000000000000000e+00
Cu 4.365555775801947647e+00 6.769627484817194452e-01 0.000000000000000000e+00
Cu 4.341992520541755773e+00 7.789675517583182218e-01 0.000000000000000000e+00
Cu 9.504181602627830294e-01 1.678626062745764910e-02 0.000000000000000000e+00
Cu 9.495996524837631014e-01 1.219208893337329763e-01 0.000000000000000000e+00
Cu 9.488139102673123215e-01 2.270887264411543260e-01 0.000000000000000000e+00
Cu 9.480762755750316018e-01 3.322423543204339191e-01 0.000000000000000000e+00
Cu 9.474703464785597662e-01 4.373821639901132041e-01 0.000000000000000000e+00
Cu 9.471604959637018872e-01 5.424503299886868080e-01 0.000000000000000000e+00
Cu 9.467870284748589604e-01 6.476235118770385935e-01 0.000000000000000000e+00
Cu 4.498992688725405920e+00 6.012323202774911834e-01 0.000000000000000000e+00
Cu 4.473543971261387142e+00 7.012757735247868718e-01 0.000000000000000000e+00
Cu 4.452648037756823385e+00 8.000542292956089874e-01 0.000000000000000000e+00
Cu 1.055934925748913011e+00 1.766251656847610610e-02 0.000000000000000000e+00
Cu 1.055008609797080776e+00 1.228139091091583340e-01 0.000000000000000000e+00
Cu 1.054116233874913711e+00 2.279761419671374745e-01 0.000000000000000000e+00
Cu 1.053343394942862998e+00 3.331724905344833343e-01 0.000000000000000000e+00
Cu 4.691480350292417612e+00 3.273082594145463320e-01 0.000000000000000000e+00
Cu 4.655437566734453192e+00 4.250433146931706929e-01 0.000000000000000000e+00
Cu 4.635457355523595169e+00 5.267989529393943826e-01 0.000000000000000000e+00
Cu 4.609146667872215275e+00 6.251985563112272271e-01 0.000000000000000000e+00
Cu 4.587891692822092971e+00 7.225553762744452158e-01 0.000000000000000000e+00
Cu 4.570262558641296380e+00 8.188563182159993570e-01 0.000000000000000000e+00
Cu 1.161418043203528372e+00 1.867788499759634110e-02 0.000000000000000000e+00
Cu 1.160353913768073841e+00 1.238350410169600097e-01 0.000000000000000000e+00
Cu 1.159389124449829334e+00 2.290436054549309652e-01 0.000000000000000000e+00
Cu 4.829120924535720505e+00 2.583007606955248225e-01 0.000000000000000000e+00
Cu 4.797099895565216876e+00 3.567691754181764319e-01 0.000000000000000000e+00
Cu 4.774285797800623676e+00 4.540578967187229309e-01 0.000000000000000000e+00
Cu 4.747032539728873068e+00 5.488489096499923336e-01 0.000000000000000000e+00
Cu 4.726418388251953040e+00 6.455809778420129597e-01 0.000000000000000000e+00
Cu 4.708301999918691472e+00 7.404319317221806918e-01 0.000000000000000000e+00
Cu 4.693748130606194557e+00 8.344495666458123795e-01 0.000000000000000000e+00
Cu 1.266836471673788322e+00 1.983029576286994555e-02 0.000000000000000000e+00
Cu 1.265651145482370898e+00 1.250435271753384814e-01 0.000000000000000000e+00
Cu 4.970285559606310244e+00 1.911937712721032412e-01 0.000000000000000000e+00
Cu 4.938318632444326006e+00 2.876193127794414717e-01 0.000000000000000000e+00
Cu 4.912470733246139254e+00 3.824026212333335173e-01 0.000000000000000000e+00
Cu 4.889485424397929769e+00 4.766617365567822895e-01 0.000000000000000000e+00
Cu 4.868239030431312564e+00 5.702516093445646472e-01 0.000000000000000000e+00
Cu 4.849558540657314509e+00 6.625862937031385957e-01 0.000000000000000000e+00
Cu 4.834353564621183708e+00 7.550674138120425649e-01 0.000000000000000000e+00
Cu 4.822217279978782578e+00 8.469731548101315788e-01 0.000000000000000000e+00
Cu 1.372200616519638539e+00 2.122400005927506383e-02 0.000000000000000000e+00
Cu 5.111500845221311096e+00 1.254880108931349658e-01 0.000000000000000000e+00
Cu 5.081387097283154297e+00 2.208753365008599978e-01 0.000000000000000000e+00
Cu 5.056153653441858964e+00 3.138614397780963294e-01 0.000000000000000000e+00
Cu 5.033811365559007101e+00 4.052985409355978619e-01 0.000000000000000000e+00
Cu 5.013552708220374576e+00 4.962198651655465587e-01 0.000000000000000000e+00
Cu 4.995160649677563569e+00 5.867273631333775885e-01 0.000000000000000000e+00
Cu 4.978905818785058557e+00 6.768720854154698374e-01 0.000000000000000000e+00
Cu 4.965332406516531627e+00 7.668691248733657817e-01 0.000000000000000000e+00
Cu 4.955056112286565728e+00 8.568599514708526987e-01 0.000000000000000000e+00
Cu 5.249079104823847430e+00 5.852551639610946432e-02 0.000000000000000000e+00
Cu 5.224150876945826916e+00 1.540023523530891780e-01 0.000000000000000000e+00
Cu 5.201731773697563455e+00 2.458603847973833412e-01 0.000000000000000000e+00
Cu 5.181333590270928546e+00 3.356136447163768910e-01 0.000000000000000000e+00
Cu 5.162373199892571485e+00 4.242786982362909964e-01 0.000000000000000000e+00
Cu 5.144534019478686382e+00 5.123902471895852573e-01 0.000000000000000000e+00
Cu 5.127995353277182922e+00 6.003211556735584820e-01 0.000000000000000000e+00
Cu 5.113199517490897072e+00 6.882708468128725388e-01 0.000000000000000000e+00
Cu 5.100833108654173387e+00 7.763781332171137972e-01 0.000000000000000000e+00
Cu 5.091691342601489367e+00 8.646454077861560616e-01 0.000000000000000000e+00
Cu 5.362853547670491494e+00 8.183397691629969162e-02 0.000000000000000000e+00
Cu 5.346399717550622377e+00 1.753281845961971730e-01 0.000000000000000000e+00
Cu 5.329861673722471771e+00 2.651155946322125145e-01 0.000000000000000000e+00
Cu 5.313597943606198193e+00 3.527707281525962468e-01 0.000000000000000000e+00
Cu 5.297457006462272133e+00 4.393793130111219858e-01 0.000000000000000000e+00
Cu 5.281523635654295390e+00 5.255441158697532478e-01 0.000000000000000000e+00
Cu 5.266182435489788816e+00 6.115520813684977020e-01 0.000000000000000000e+00
Cu 5.252110493627782262e+00 6.976627274520200706e-01 0.000000000000000000e+00
Cu 5.240230625131539810e+00 7.841244555998083676e-01 0.000000000000000000e+00
Cu 5.231634716655047868e+00 8.709721592110726274e-01 0.000000000000000000e+00
Cu 5.486859245605410607e+00 1.001284742299892172e-01 0.000000000000000000e+00
Cu 5.476353155557420749e+00 1.911205513605556128e-01 0.000000000000000000e+00
Cu 5.464973910505404042e+00 2.793103282392739306e-01 0.000000000000000000e+00
Cu 5.452287673547252744e+00 3.655990054729052474e-01 0.000000000000000000e+00
Cu 5.438381322262618944e+00 4.511152494285929349e-01 0.000000000000000000e+00
Cu 5.423840097147259343e+00 5.363225652663217158e-01 0.000000000000000000e+00
Cu 5.409267754377220960e+00 6.211976156889612577e-01 0.000000000000000000e+00
Cu 5.395315955548881881e+00 7.058983153782421027e-01 0.000000000000000000e+00
Cu 5.383124160321269613e+00 7.909329908695684752e-01 0.000000000000000000e+00
Cu 5.374292876462320123e+00 8.766117137159723516e-01 0.000000000000000000e+00
Cu 5.618796096923374783e+00 1.136976605482805658e-01 0.000000000000000000e+00
Cu 5.613626765791676299e+00 2.024798190884027072e-01 0.000000000000000000e+00
Cu 5.606878132881115917e+00 2.890440996446750899e-01 0.000000000000000000e+00
Cu 5.596968453438709190e+00 3.747115535156378407e-01 0.000000000000000000e+00
Cu 5.584459467577617353e+00 4.602631793860146869e-01 0.000000000000000000e+00
Cu 5.570845122175798636e+00 5.455019287966251795e-01 0.000000000000000000e+00
Cu 5.556927337573146275e+00 6.302703600036405618e-01 0.000000000000000000e+00
Cu 5.542722335679972190e+00 7.141441313588000606e-01 0.000000000000000000e+00
Cu 5.529203065743106826e+00 7.978613260472439128e-01 0.000000000000000000e+00
Cu 5.518858273674836390e+00 8.826620412451275932e-01 0.000000000000000000e+00
Cu 5.756192617290201596e+00 1.211530854169791116e-01 0.000000000000000000e+00
Cu 5.758234631383411184e+00 2.084445143779803666e-01 0.000000000000000000e+00
Cu 5.755952847501824010e+00 2.942516817078166258e-01 0.000000000000000000e+00
Cu 5.746811494682611432e+00 3.812022707912407493e-01 0.000000000000000000e+00
Cu 5.735161827342030172e+00 4.678523284189350373e-01 0.000000000000000000e+00
Cu 5.722100491385274879e+00 5.539216634963362029e-01 0.000000000000000000e+00
Cu 5.708418264284916610e+00 6.393411895690616076e-01 0.000000000000000000e+00
Cu 5.694798769411227646e+00 7.241387736800322106e-01 0.000000000000000000e+00
Cu 5.678499515198800474e+00 8.067166933674352336e-01 0.000000000000000000e+00
Cu 5.663589325833323862e+00 8.909930888752261025e-01 0.000000000000000000e+00
Cu 5.891794935798785104e+00 1.132957708274345970e-01 0.000000000000000000e+00
Cu 5.913670700213601528e+00 2.052117949892273141e-01 0.000000000000000000e+00
Cu 5.909711277312945654e+00 2.969924266660784462e-01 0.000000000000000000e+00
Cu 5.901559608071966778e+00 3.869098439782415744e-01 0.000000000000000000e+00
Cu 5.890086311066070834e+00 4.751396027138406475e-01 0.000000000000000000e+00
Cu 5.877263049378623982e+00 5.622170518816805851e-01 0.000000000000000000e+00
Cu 5.863889513552374311e+00 6.485908724147471105e-01 0.000000000000000000e+00
Cu 5.849434220366306114e+00 7.349278189265305850e-01 0.000000000000000000e+00
Cu 5.834928711374456789e+00 8.226493936577395916e-01 0.000000000000000000e+00
Cu 5.800650300633092726e+00 9.093426860256124122e-01 0.000000000000000000e+00
