200

Cu 0.000000000000000000e+00 8.916260327329985670e-04 0.000000000000000000e+00
Cu 0.000000000000000000e+00 1.048741117682978757e-01 0.000000000000000000e+00
Cu 0.000000000000000000e+00 2.089742097833945100e-01 0.000000000000000000e+00
Cu 0.000000000000000000e+00 3.133192628834549631e-01 0.000000000000000000e+00
Cu 0.000000000000000000e+00 4.179566255100865546e-01 0.000000000000000000e+00
Cu 0.000000000000000000e+00 5.228907855741172783e-01 0.000000000000000000e+00
Cu 0.000000000000000000e+00 6.281174241605483877e-01 0.000000000000000000e+00
Cu 0.000000000000000000e+00 7.336338330660872042e-01 0.000000000000000000e+00
Cu 0.000000000000000000e+00 8.394271016534119445e-01 0.000000000000000000e+00
Cu 0.000000000000000000e+00 9.454454495635105093e-01 0.000000000000000000e+00
Cu 1.096630536667026201e-01 2.175424268062815022e-03 0.000000000000000000e+00
Cu 1.085983160008037879e-01 1.055147953503225017e-01 0.000000000000000000e+00
Cu 1.078180122339061631e-01 2.094544265083583545e-01 0.000000000000000000e+00
Cu 1.070634168945895082e-01 3.137742165916309611e-01 0.000000000000000000e+00
Cu 1.063194474487139940e-01 4.184237438837836720e-01 0.000000000000000000e+00
Cu 1.055784399730823053e-01 5.233828495490315813e-01 0.000000000000000000e+00
Cu 1.048290249871305369e-01 6.286369679058038118e-01 0.000000000000000000e+00
Cu 1.040516725657577995e-01 7.341877991668247505e-01 0.000000000000000000e+00
Cu 1.032110739330961008e-01 8.400901266404877665e-01 0.000000000000000000e+00
Cu 1.020740505701212275e-01 9.465796768480597700e-01 0.000000000000000000e+00
Cu 2.191655139727706203e-01 3.791206539150810025e-03 0.000000000000000000e+00
Cu 2.173437933689496560e-01 1.071546068048594424e-01 0.000000000000000000e+00
Cu 2.156538791154262724e-01 2.109691724118684941e-01 0.000000000000000000e+00
Cu 2.140886608396601332e-01 3.152562530682685993e-01 0.000000000000000000e+00
Cu 2.125770105007714905e-01 4.199332151668557223e-01 0.000000000000000000e+00
Cu 2.110925089066653937e-01 5.249483740646148089e-01 0.000000000000000000e+00
Cu 2.096030432283805256e-01 6.302699164415828115e-01 0.000000000000000000e+00
Cu 2.080513466532161737e-01 7.358974097167073625e-01 0.000000000000000000e+00
Cu 2.063217447283547112e-01 8.418931590548067723e-01 0.000000000000000000e+00
Cu 2.043396948662411228e-01 9.482903742336630248e-01 0.000000000000000000e+00
Cu 3.285158848506566920e-01 6.158266057418847368e-03 0.000000000000000000e+00
Cu 3.259283927791976621e-01 1.095710443304857284e-01 0.000000000000000000e+00
Cu 3.234164019326957185e-01 2.134197703061536666e-01 0.000000000000000000e+00
Cu 3.210139689248311945e-01 3.177183551944001705e-01 0.000000000000000000e+00
Cu 3.187151181372994690e-01 4.224410375454724642e-01 0.000000000000000000e+00
Cu 3.164890749672147896e-01 5.275306248822313471e-01 0.000000000000000000e+00
Cu 3.142895887311027980e-01 6.329379310057838826e-01 0.000000000000000000e+00
Cu 3.120286673243469755e-01 7.386324011917518861e-01 0.000000000000000000e+00
Cu 3.095949062804123075e-01 8.445983742729366028e-01 0.000000000000000000e+00
Cu 3.068817984305343693e-01 9.508637035450516750e-01 0.000000000000000000e+00
Cu 4.376878028826837186e-01 9.315907959354607915e-03 0.000000000000000000e+00
Cu 4.343040191464148103e-01 1.127923525685875783e-01 0.000000000000000000e+00
Cu 4.309758705215498420e-01 2.167137610873088871e-01 0.000000000000000000e+00
Cu 4.277577277583114457e-01 3.210837304046917362e-01 0.000000000000000000e+00
Cu 4.246767527588251601e-01 4.258727870258243731e-01 0.000000000000000000e+00
Cu 4.217308074266705731e-01 5.310312141739168545e-01 0.000000000000000000e+00
Cu 4.188840632900500682e-01 6.364992767797215123e-01 0.000000000000000000e+00
Cu 4.160528334806390949e-01 7.422122005079113682e-01 0.000000000000000000e+00
Cu 4.130932335564613811e-01 8.481111401120055016e-01 0.000000000000000000e+00
Cu 4.098230046112494862e-01 9.541906865618419165e-01 0.000000000000000000e+00
Cu 5.466604059950403993e-01 1.328494786536946887e-02 0.000000000000000000e+00
Cu 5.424382415035546856e-01 1.168188014096938759e-01 0.000000000000000000e+00
Cu 5.382672190565455095e-01 2.208196938446083668e-01 0.000000000000000000e+00
Cu 5.342411918105701707e-01 3.252788740749048002e-01 0.000000000000000000e+00
Cu 5.304158100870526305e-01 4.301406946303149570e-01 0.000000000000000000e+00
Cu 5.268089050663560258e-01 5.353277633187986106e-01 0.000000000000000000e+00
Cu 5.234101222826448296e-01 6.407774485879007553e-01 0.000000000000000000e+00
Cu 5.201530660921582783e-01 7.464305509581776743e-01 0.000000000000000000e+00
Cu 5.168741544774324570e-01 8.522218686148681499e-01 0.000000000000000000e+00
Cu 5.133030798835461761e-01 9.580734722212539412e-01 0.000000000000000000e+00
Cu 6.554351987807965907e-01 1.810401357979798953e-02 0.000000000000000000e+00
Cu 6.503117402178109074e-01 1.216684036807045149e-01 0.000000000000000000e+00
Cu 6.452457910807933850e-01 2.257177451711391836e-01 0.000000000000000000e+00
Cu 6.404075565652569413e-01 3.302472737253550061e-01 0.000000000000000000e+00
Cu 6.358984744871006844e-01 4.351554292631308885e-01 0.000000000000000000e+00
Cu 6.317555656366580230e-01 5.403061642238643492e-01 0.000000000000000000e+00
Cu 6.279407083789443345e-01 6.455842667045348371e-01 0.000000000000000000e+00
Cu 6.243888714902824377e-01 7.510182803710020449e-01 0.000000000000000000e+00
Cu 6.209739739451201057e-01 8.565944435160770531e-01 0.000000000000000000e+00
Cu 6.174491803233977949e-01 9.622024852292682118e-01 0.000000000000000000e+00
Cu 7.640168506937581316e-01 2.385172305926039696e-02 0.000000000000000000e+00
Cu 7.579288118431194432e-01 1.274090552717232760e-01 0.000000000000000000e+00
Cu 7.518968676310102683e-01 2.314251284719056889e-01 0.000000000000000000e+00
Cu 7.462061964386361712e-01 3.359349281569696255e-01 0.000000000000000000e+00
Cu 7.411028387280951257e-01 4.408299815137558531e-01 0.000000000000000000e+00
Cu 7.366284117746499938e-01 5.458193984172491353e-01 0.000000000000000000e+00
Cu 7.326707236397560496e-01 6.507696509540197294e-01 0.000000000000000000e+00
Cu 7.288914287456557117e-01 7.556757490677983302e-01 0.000000000000000000e+00
Cu 7.254488344190787030e-01 8.608475695252633120e-01 0.000000000000000000e+00
Cu 7.223679969926309896e-01 9.659216374725585474e-01 0.000000000000000000e+00
Cu 8.723756141025009736e-01 3.060664319515149154e-02 0.000000000000000000e+00
Cu 8.652896041270891070e-01 1.341668914242071242e-01 0.000000000000000000e+00
Cu 8.582659407323790512e-01 2.380664400866669139e-01 0.000000000000000000e+00
Cu 8.516343818264128229e-01 3.423403205483892542e-01 0.000000000000000000e+00
Cu 8.459703337169973691e-01 4.470097273064042587e-01 0.000000000000000000e+00
Cu 8.416278620881817440e-01 5.516657580057435784e-01 0.000000000000000000e+00
Cu 8.377622744315329495e-01 6.559505731465232747e-01 0.000000000000000000e+00
Cu 8.338493570374954089e-01 7.606585882959038258e-01 0.000000000000000000e+00
Cu 2.278511031570874756e+00 7.033870183970629686e-01 0.000000000000000000e+00
Cu 2.259209369169981496e+00 8.064201789240791340e-01 0.000000000000000000e+00
Cu 9.804536042413045660e-01 3.846661669576448284e-02 0.000000000000000000e+00
Cu 9.722960674585190421e-01 1.420236014375054479e-01 0.000000000000000000e+00
Cu 9.643784203263117139e-01 2.459316093734499054e-01 0.000000000000000000e+00
Cu 9.568648065570072303e-01 3.497525131191248637e-01 0.000000000000000000e+00
Cu 9.505484583000295418e-01 4.535428570448042374e-01 0.000000000000000000e+00
Cu 9.472818698663677539e-01 5.568309072124593140e-01 0.000000000000000000e+00
Cu 9.432523497411143820e-01 6.611328901532023128e-01 0.000000000000000000e+00
Cu 2.407304689242551365e+00 6.216454725432065676e-01 0.000000000000000000e+00
Cu 2.386346371344497008e+00 7.231751474438230520e-01 0.000000000000000000e+00
Cu 2.369098692920685867e+00 8.235138647146332813e-01 0.000000000000000000e+00
Cu 1.088121354980095212e+00 4.748328562928794128e-02 0.000000000000000000e+00
Cu 1.078857047240285638e+00 1.511550978268990097e-01 0.000000000000000000e+00
Cu 1.069849795474551835e+00 2.549847855495234183e-01 0.000000000000000000e+00
Cu 1.061888892830029185e+00 3.592693962173897915e-01 0.000000000000000000e+00
Cu 2.585652395448311047e+00 3.380596831934440938e-01 0.000000000000000000e+00
Cu 2.555364513468748822e+00 4.380818303991844687e-01 0.000000000000000000e+00
Cu 2.538658041514964214e+00 5.409074058219933701e-01 0.000000000000000000e+00
Cu 2.516870107488962116e+00 6.411983543816187625e-01 0.000000000000000000e+00
Cu 2.499225677058942718e+00 7.404135733703800515e-01 0.000000000000000000e+00
Cu 2.484616887059460932e+00 8.386456792933491000e-01 0.000000000000000000e+00
Cu 1.195284535539850479e+00 5.789474985250817052e-02 0.000000000000000000e+00
Cu 1.184625603243033121e+00 1.615501135521952014e-01 0.000000000000000000e+00
Cu 1.174801542580403257e+00 2.658175360184350522e-01 0.000000000000000000e+00
Cu 2.718772339618861889e+00 2.625008951992752748e-01 0.000000000000000000e+00
Cu 2.691638185160764696e+00 3.628547860315762263e-01 0.000000000000000000e+00
Cu 2.672191467771492857e+00 4.619012747060125545e-01 0.000000000000000000e+00
Cu 2.649316316789065873e+00 5.591329539553839822e-01 0.000000000000000000e+00
Cu 2.632087954606054048e+00 6.577880940079280370e-01 0.000000000000000000e+00
Cu 2.617016376840844316e+00 7.548548347844030726e-01 0.000000000000000000e+00
Cu 2.604922395714162509e+00 8.511041790429506593e-01 0.000000000000000000e+00
Cu 1.301626393079801325e+00 6.966141557346906821e-02 0.000000000000000000e+00
Cu 1.289673976166353375e+00 1.737707031547809644e-01 0.000000000000000000e+00
Cu 2.855084672518102717e+00 1.888491854368204992e-01 0.000000000000000000e+00
Cu 2.827652713700159470e+00 2.873778663312722137e-01 0.000000000000000000e+00
Cu 2.805449330867258784e+00 3.843476225444022454e-01 0.000000000000000000e+00
Cu 2.785875690820947437e+00 4.808724063035398899e-01 0.000000000000000000e+00
Cu 2.767867482201255225e+00 5.768053674513216045e-01 0.000000000000000000e+00
Cu 2.752159084792197064e+00 6.716912646826764810e-01 0.000000000000000000e+00
Cu 2.739437494676665086e+00 7.666432316587402651e-01 0.000000000000000000e+00
Cu 2.729346249695557614e+00 8.610448905690244459e-01 0.000000000000000000e+00
Cu 1.407110093484743807e+00 8.374749560677273441e-02 0.000000000000000000e+00
Cu 2.991644907756510818e+00 1.168122249074714375e-01 0.000000000000000000e+00
Cu 2.965476266408265893e+00 2.143543312450150451e-01 0.000000000000000000e+00
Cu 2.943515288388268480e+00 3.097225835784850889e-01 0.000000000000000000e+00
Cu 2.924210484384872633e+00 4.037576164400436540e-01 0.000000000000000000e+00
Cu 2.906826654259961007e+00 4.973121777059718029e-01 0.000000000000000000e+00
Cu 2.891160257527489730e+00 5.905103412833453413e-01 0.000000000000000000e+00
Cu 2.877397230218251778e+00 6.834003971377841102e-01 0.000000000000000000e+00
Cu 2.865984015722249811e+00 7.761533193635166139e-01 0.000000000000000000e+00
Cu 2.857404956662606299e+00 8.688537806395923990e-01 0.000000000000000000e+00
Cu 3.125272805338554782e+00 4.412933766260423996e-02 0.000000000000000000e+00
Cu 3.103172220006086057e+00 1.416169760155680524e-01 0.000000000000000000e+00
Cu 3.083322748118035417e+00 2.359730840429848375e-01 0.000000000000000000e+00
Cu 3.065444095548084391e+00 3.284999543365990649e-01 0.000000000000000000e+00
Cu 3.048969242676469626e+00 4.200247387182424186e-01 0.000000000000000000e+00
Cu 3.033592638218820525e+00 5.110456160587640850e-01 0.000000000000000000e+00
Cu 3.019419869965444203e+00 6.019075231284405358e-01 0.000000000000000000e+00
Cu 3.006809533359536157e+00 6.928014263905983849e-01 0.000000000000000000e+00
Cu 2.996329046860963796e+00 7.838421496403844557e-01 0.000000000000000000e+00
Cu 2.988639498026435692e+00 8.750093038010824387e-01 0.000000000000000000e+00
Cu 3.237504212893968170e+00 6.488751801530134866e-02 0.000000000000000000e+00
Cu 3.222412232377774632e+00 1.604943255771662525e-01 0.000000000000000000e+00
Cu 3.207612739985124861e+00 2.529713635408640804e-01 0.000000000000000000e+00
Cu 3.193289677009344629e+00 3.435447686718531846e-01 0.000000000000000000e+00
Cu 3.179240658241750506e+00 4.331682584245643008e-01 0.000000000000000000e+00
Cu 3.165458212817419792e+00 5.223848309186861494e-01 0.000000000000000000e+00
Cu 3.152236013574896134e+00 6.114657607077860213e-01 0.000000000000000000e+00
Cu 3.140141227767475840e+00 7.006549512048472206e-01 0.000000000000000000e+00
Cu 3.129962684897906300e+00 7.901823701633970964e-01 0.000000000000000000e+00
Cu 3.122628341167621446e+00 8.800759570925371644e-01 0.000000000000000000e+00
Cu 3.358038094986542710e+00 8.140149380064812257e-02 0.000000000000000000e+00
Cu 3.348075297115516769e+00 1.748270567118210272e-01 0.000000000000000000e+00
Cu 3.337771411751958794e+00 2.657576722936459412e-01 0.000000000000000000e+00
Cu 3.326589211177569005e+00 3.550008814357507037e-01 0.000000000000000000e+00
Cu 3.314470266078876737e+00 4.435698434512028721e-01 0.000000000000000000e+00
Cu 3.301857712123832833e+00 5.318726707046580460e-01 0.000000000000000000e+00
Cu 3.289238450137282221e+00 6.198805004042999833e-01 0.000000000000000000e+00
Cu 3.277144491767685519e+00 7.077333104177455647e-01 0.000000000000000000e+00
Cu 3.266555439719307508e+00 7.959168514962897678e-01 0.000000000000000000e+00
Cu 3.258851875270664333e+00 8.847495445748916332e-01 0.000000000000000000e+00
Cu 3.485062211152941902e+00 9.383894160592903821e-02 0.000000000000000000e+00
Cu 3.479922086267896564e+00 1.853211881447241749e-01 0.000000000000000000e+00
Cu 3.473745465120294806e+00 2.746892533014503313e-01 0.000000000000000000e+00
Cu 3.464965541112471570e+00 3.632936545417882468e-01 0.000000000000000000e+00
Cu 3.454040652138583578e+00 4.518539144630786542e-01 0.000000000000000000e+00
Cu 3.442209522156245871e+00 5.401690897278641490e-01 0.000000000000000000e+00
Cu 3.430119663731499902e+00 6.280483001150177769e-01 0.000000000000000000e+00
Cu 3.417770122556603951e+00 7.151215164566262494e-01 0.000000000000000000e+00
Cu 3.405869959161012872e+00 8.020349606781934648e-01 0.000000000000000000e+00
Cu 3.396597741072054699e+00 8.900386822185678559e-01 0.000000000000000000e+00
Cu 3.616514079749832522e+00 1.008016353912621621e-01 0.000000000000000000e+00
Cu 3.618145226131904479e+00 1.909028790025440458e-01 0.000000000000000000e+00
Cu 3.615752849767209121e+00 2.795988323201571979e-01 0.000000000000000000e+00
Cu 3.607655428141501197e+00 3.693498079897883923e-01 0.000000000000000000e+00
Cu 3.597420005038749036e+00 4.589006611074571973e-01 0.000000000000000000e+00
Cu 3.586056585639404215e+00 5.479684665981305880e-01 0.000000000000000000e+00
Cu 3.574216059715556337e+00 6.364730697018666783e-01 0.000000000000000000e+00
Cu 3.562306254407078043e+00 7.243546396607027926e-01 0.000000000000000000e+00
Cu 3.548083163324772471e+00 8.103270135764208959e-01 0.000000000000000000e+00
Cu 3.534313176400930789e+00 8.977356321362928160e-01 0.000000000000000000e+00
Cu 3.746759186278349141e+00 9.356573755535393944e-02 0.000000000000000000e+00
Cu 3.765134510496424003e+00 1.881971587558432524e-01 0.000000000000000000e+00
Cu 3.761626818423651208e+00 2.823336176290862642e-01 0.000000000000000000e+00
Cu 3.754261548290073414e+00 3.748063443110766224e-01 0.000000000000000000e+00
Cu 3.744224389776781958e+00 4.658128540022191677e-01 0.000000000000000000e+00
Cu 3.733089640804924780e+00 5.558092230337581263e-01 0.000000000000000000e+00
Cu 3.721488268511711439e+00 6.452055872612554310e-01 0.000000000000000000e+00
Cu 3.709015446045802911e+00 7.346297493421358737e-01 0.000000000000000000e+00
Cu 3.695951361858824669e+00 8.251950766563422857e-01 0.000000000000000000e+00
Cu 3.665742076747050771e+00 9.153940764346136794e-01 0.000000000000000000e+00
