200

Cu 0.000000000000000000e+00 7.557453094270899681e-03 0.000000000000000000e+00
Cu 0.000000000000000000e+00 1.122795940517441332e-01 0.000000000000000000e+00
Cu 0.000000000000000000e+00 2.170821293015954279e-01 0.000000000000000000e+00
Cu 0.000000000000000000e+00 3.220179496516540896e-01 0.000000000000000000e+00
Cu 0.000000000000000000e+00 4.271020677665773868e-01 0.000000000000000000e+00
Cu 0.000000000000000000e+00 5.323298618845540009e-01 0.000000000000000000e+00
Cu 0.000000000000000000e+00 6.376929138906803907e-01 0.000000000000000000e+00
Cu 0.000000000000000000e+00 7.431840464937811142e-01 0.000000000000000000e+00
Cu 0.000000000000000000e+00 8.487911511899969286e-01 0.000000000000000000e+00
Cu 0.000000000000000000e+00 9.544835385008488826e-01 0.000000000000000000e+00
Cu 1.072299768459133440e-01 8.150789066636387678e-03 0.000000000000000000e+00
Cu 1.067095400387277487e-01 1.125807687384912659e-01 0.000000000000000000e+00
Cu 1.063235852266672249e-01 2.173125333887373778e-01 0.000000000000000000e+00
Cu 1.059540592629775180e-01 3.222388391471792124e-01 0.000000000000000000e+00
Cu 1.055939601426280489e-01 4.273302719526988480e-01 0.000000000000000000e+00
Cu 1.052397311598447238e-01 5.325710004627478567e-01 0.000000000000000000e+00
Cu 1.048855616267726776e-01 6.379481015675650957e-01 0.000000000000000000e+00
Cu 1.045211919740486883e-01 7.434572401893557725e-01 0.000000000000000000e+00
Cu 1.041279805506319933e-01 8.491218793739456761e-01 0.000000000000000000e+00
Cu 1.035841033682983331e-01 9.550593183102433770e-01 0.000000000000000000e+00
Cu 2.143894165870775526e-01 8.921015739053505048e-03 0.000000000000000000e+00
Cu 2.134890656198484560e-01 1.133664225113409224e-01 0.000000000000000000e+00
Cu 2.126572078251534881e-01 2.180432530221980136e-01 0.000000000000000000e+00
Cu 2.118921381525308012e-01 3.229566718546816317e-01 0.000000000000000000e+00
Cu 2.111614916469844727e-01 4.280625402665966250e-01 0.000000000000000000e+00
Cu 2.104526501018847418e-01 5.333306312002440430e-01 0.000000000000000000e+00
Cu 2.097493309004836715e-01 6.387404336678610406e-01 0.000000000000000000e+00
Cu 2.090219519988880947e-01 7.442877521186556100e-01 0.000000000000000000e+00
Cu 2.082104958919101245e-01 8.500009250469898747e-01 0.000000000000000000e+00
Cu 2.072754883214608934e-01 9.558930882237233195e-01 0.000000000000000000e+00
Cu 3.214822918941186991e-01 1.006359916676750725e-02 0.000000000000000000e+00
Cu 3.201987225506609525e-01 1.145336454287814582e-01 0.000000000000000000e+00
Cu 3.189618478159328419e-01 2.192285789410603758e-01 0.000000000000000000e+00
Cu 3.177894211249130407e-01 3.241490405071605352e-01 0.000000000000000000e+00
Cu 3.166799048977914643e-01 4.292772154044028343e-01 0.000000000000000000e+00
Cu 3.156186807296659236e-01 5.345804083914543758e-01 0.000000000000000000e+00
Cu 3.145820419812014879e-01 6.400301562795779331e-01 0.000000000000000000e+00
Cu 3.135245637010894426e-01 7.456081513588348475e-01 0.000000000000000000e+00
Cu 3.123887130016977931e-01 8.513038641781506266e-01 0.000000000000000000e+00
Cu 3.111198005264108057e-01 9.571280363301424288e-01 0.000000000000000000e+00
Cu 4.284989421190147918e-01 1.159321454867491379e-02 0.000000000000000000e+00
Cu 4.268192491505309882e-01 1.160949168247720625e-01 0.000000000000000000e+00
Cu 4.251807403514543116e-01 2.208248283552018687e-01 0.000000000000000000e+00
Cu 4.236118853895083913e-01 3.257790657085279373e-01 0.000000000000000000e+00
Cu 4.221271231646528399e-01 4.309376080172875323e-01 0.000000000000000000e+00
Cu 4.207255626986325381e-01 5.362710402749438776e-01 0.000000000000000000e+00
Cu 4.193880811780381634e-01 6.417455765584779703e-01 0.000000000000000000e+00
Cu 4.180706275164934316e-01 7.473260624053088552e-01 0.000000000000000000e+00
Cu 4.166993001601141389e-01 8.529817172056579633e-01 0.000000000000000000e+00
Cu 4.151814225776452871e-01 9.587088926656768262e-01 0.000000000000000000e+00
Cu 5.354331640308100937e-01 1.351797944915381945e-02 0.000000000000000000e+00
Cu 5.333388578082817189e-01 1.180485883911399914e-01 0.000000000000000000e+00
Cu 5.312872908073528189e-01 2.228163354838773591e-01 0.000000000000000000e+00
Cu 5.293270118741385533e-01 3.278110993092858139e-01 0.000000000000000000e+00
Cu 5.274866011540555455e-01 4.330001658044660418e-01 0.000000000000000000e+00
Cu 5.257747333640082621e-01 5.383406637035987874e-01 0.000000000000000000e+00
Cu 5.241846121565575389e-01 6.437974897115361639e-01 0.000000000000000000e+00
Cu 5.226794274335144763e-01 7.493379175331941200e-01 0.000000000000000000e+00
Cu 5.211739017648350236e-01 8.549291199859158086e-01 0.000000000000000000e+00
Cu 5.195313276688414694e-01 9.605348681027241486e-01 0.000000000000000000e+00
Cu 6.422904418403019289e-01 1.585455410785273356e-02 0.000000000000000000e+00
Cu 6.397526992352706721e-01 1.204019445385576120e-01 0.000000000000000000e+00
Cu 6.372645704947025314e-01 2.251927394048776343e-01 0.000000000000000000e+00
Cu 6.349127002192256342e-01 3.302174099135583574e-01 0.000000000000000000e+00
Cu 6.327478360565806925e-01 4.354203340867207617e-01 0.000000000000000000e+00
Cu 6.307876413118498338e-01 5.407307614393829232e-01 0.000000000000000000e+00
Cu 6.290108828750055059e-01 6.460895600174070275e-01 0.000000000000000000e+00
Cu 6.273822801776498537e-01 7.515091184045141759e-01 0.000000000000000000e+00
Cu 6.258319290643260535e-01 8.569796678450052330e-01 0.000000000000000000e+00
Cu 6.242309370234749855e-01 9.624511754885605175e-01 0.000000000000000000e+00
Cu 7.490788787339288657e-01 1.863937263901302779e-02 0.000000000000000000e+00
Cu 7.460682705539175563e-01 1.231861865244701787e-01 0.000000000000000000e+00
Cu 7.431104372025519877e-01 2.279615982612357150e-01 0.000000000000000000e+00
Cu 7.403495722973377768e-01 3.329716763453561268e-01 0.000000000000000000e+00
Cu 7.379062178798995175e-01 4.381549289025342131e-01 0.000000000000000000e+00
Cu 7.357977681678533610e-01 5.433662970095898270e-01 0.000000000000000000e+00
Cu 7.339659212390766685e-01 6.485428078162739363e-01 0.000000000000000000e+00
Cu 7.322407868817749632e-01 7.536862545309466199e-01 0.000000000000000000e+00
Cu 7.307012729560030673e-01 8.589458715363422758e-01 0.000000000000000000e+00
Cu 7.293239653786548482e-01 9.641422301074228374e-01 0.000000000000000000e+00
Cu 8.557901882875580402e-01 2.190910101602592391e-02 0.000000000000000000e+00
Cu 8.522925580957048108e-01 1.264616691355248679e-01 0.000000000000000000e+00
Cu 8.488528151525476240e-01 2.311807864048404659e-01 0.000000000000000000e+00
Cu 8.456414875144442345e-01 3.360732368150153859e-01 0.000000000000000000e+00
Cu 8.429390524551663155e-01 4.411279995728966674e-01 0.000000000000000000e+00
Cu 8.409078440888252404e-01 5.461443081618642115e-01 0.000000000000000000e+00
Cu 8.391286830749070669e-01 6.509667897283410998e-01 0.000000000000000000e+00
Cu 8.373540346191890027e-01 7.559905389519614438e-01 0.000000000000000000e+00
Cu 2.893495206568566847e+00 6.880503743812176332e-01 0.000000000000000000e+00
Cu 2.871763416818043702e+00 7.905283650044176991e-01 0.000000000000000000e+00
Cu 9.624030592143772989e-01 2.571239138812417974e-02 0.000000000000000000e+00
Cu 9.583835933557737219e-01 1.302688119533000899e-01 0.000000000000000000e+00
Cu 9.545150224295779751e-01 2.349919413726040684e-01 0.000000000000000000e+00
Cu 9.508776657892737960e-01 3.396533281006717253e-01 0.000000000000000000e+00
Cu 9.478784989386228599e-01 4.442651414043181646e-01 0.000000000000000000e+00
Cu 9.463685960885681592e-01 5.485605782599677349e-01 0.000000000000000000e+00
Cu 9.445171942723291636e-01 6.533686279730325230e-01 0.000000000000000000e+00
Cu 3.024616130716361262e+00 6.096471493085946491e-01 0.000000000000000000e+00
Cu 3.001211125079122688e+00 7.104531110166669716e-01 0.000000000000000000e+00
Cu 2.981775484934437337e+00 8.100564764652260497e-01 0.000000000000000000e+00
Cu 1.068859439717075643e+00 3.007617779910293221e-02 0.000000000000000000e+00
Cu 1.064305375575498536e+00 1.346992842004846869e-01 0.000000000000000000e+00
Cu 1.059910422514510397e+00 2.393834512071879861e-01 0.000000000000000000e+00
Cu 1.056088048225297005e+00 3.442570873946105281e-01 0.000000000000000000e+00
Cu 3.209830177883158608e+00 3.310700187829507812e-01 0.000000000000000000e+00
Cu 3.176861454909053695e+00 4.300668031054177276e-01 0.000000000000000000e+00
Cu 3.158352003175143530e+00 5.323284247654229695e-01 0.000000000000000000e+00
Cu 3.134198051281336106e+00 6.317497353848917641e-01 0.000000000000000000e+00
Cu 3.114451333320787718e+00 7.301316042893130076e-01 0.000000000000000000e+00
Cu 3.097928538082019845e+00 8.275322093103073540e-01 0.000000000000000000e+00
Cu 1.175122879997169356e+00 3.512573289359220002e-02 0.000000000000000000e+00
Cu 1.169888403637569185e+00 1.397561795047934097e-01 0.000000000000000000e+00
Cu 1.165123071109392949e+00 2.446590071524547272e-01 0.000000000000000000e+00
Cu 3.344975234918723839e+00 2.587400983447802338e-01 0.000000000000000000e+00
Cu 3.315498337176068677e+00 3.582635520926633621e-01 0.000000000000000000e+00
Cu 3.294216901113788065e+00 4.565420607357699168e-01 0.000000000000000000e+00
Cu 3.269128951194051780e+00 5.527652471325069650e-01 0.000000000000000000e+00
Cu 3.249961557949450075e+00 6.506228722164172362e-01 0.000000000000000000e+00
Cu 3.233040613440830047e+00 7.467871573967372889e-01 0.000000000000000000e+00
Cu 3.219287200673040861e+00 8.421299598414442311e-01 0.000000000000000000e+00
Cu 1.281037959018049621e+00 4.084703269577958512e-02 0.000000000000000000e+00
Cu 1.275191718769198346e+00 1.457281531389323370e-01 0.000000000000000000e+00
Cu 3.483333242466467805e+00 1.882680476568805439e-01 0.000000000000000000e+00
Cu 3.453736120816493838e+00 2.859189017690831891e-01 0.000000000000000000e+00
Cu 3.429633831768602814e+00 3.819949092326313522e-01 0.000000000000000000e+00
Cu 3.408219639408446078e+00 4.776225785769553367e-01 0.000000000000000000e+00
Cu 3.388397137671964821e+00 5.726391269158054298e-01 0.000000000000000000e+00
Cu 3.370948735863647183e+00 6.665461918285175980e-01 0.000000000000000000e+00
Cu 3.356633936875728086e+00 7.605480739614668417e-01 0.000000000000000000e+00
Cu 3.345096737972709899e+00 8.539819375470516505e-01 0.000000000000000000e+00
Cu 1.386624389896840670e+00 4.774079580561370328e-02 0.000000000000000000e+00
Cu 3.621812747731834481e+00 1.192562835636069019e-01 0.000000000000000000e+00
Cu 3.593719294392414554e+00 2.159363889518164104e-01 0.000000000000000000e+00
Cu 3.570026027888159259e+00 3.103773395229705856e-01 0.000000000000000000e+00
Cu 3.549053963854841953e+00 4.034279103216625306e-01 0.000000000000000000e+00
Cu 3.530036110035752461e+00 4.959934330369351052e-01 0.000000000000000000e+00
Cu 3.512771684774768310e+00 5.881913195256344151e-01 0.000000000000000000e+00
Cu 3.497480219939580248e+00 6.800642937041522229e-01 0.000000000000000000e+00
Cu 3.484649117985189282e+00 7.717927540646983831e-01 0.000000000000000000e+00
Cu 3.474814238468292071e+00 8.634747605544512705e-01 0.000000000000000000e+00
Cu 3.757109398490010133e+00 4.928105570709331168e-02 0.000000000000000000e+00
Cu 3.733465219118746958e+00 1.460083163074201995e-01 0.000000000000000000e+00
Cu 3.712156451245494093e+00 2.394420066773955691e-01 0.000000000000000000e+00
Cu 3.692827426627233844e+00 3.309531789773242361e-01 0.000000000000000000e+00
Cu 3.674897505291367494e+00 4.214317437181241410e-01 0.000000000000000000e+00
Cu 3.658060729244918097e+00 5.113934360357023090e-01 0.000000000000000000e+00
Cu 3.642452380315939209e+00 6.011926781808135667e-01 0.000000000000000000e+00
Cu 3.628468006817042735e+00 6.910207932626967198e-01 0.000000000000000000e+00
Cu 3.616722704938228894e+00 7.809948964664945592e-01 0.000000000000000000e+00
Cu 3.607930372508703076e+00 8.710959858237076192e-01 0.000000000000000000e+00
Cu 3.869603638679084856e+00 7.156486655579502587e-02 0.000000000000000000e+00
Cu 3.853466543867547056e+00 1.664229809774010749e-01 0.000000000000000000e+00
Cu 3.837515415266082197e+00 2.579415665361178833e-01 0.000000000000000000e+00
Cu 3.821963698683709332e+00 3.474679488834155894e-01 0.000000000000000000e+00
Cu 3.806619666897151255e+00 4.360076420727819202e-01 0.000000000000000000e+00
Cu 3.791510383970114084e+00 5.241287158455958384e-01 0.000000000000000000e+00
Cu 3.776971279320631592e+00 6.121104905725502920e-01 0.000000000000000000e+00
Cu 3.763617942039628073e+00 7.002010287621692752e-01 0.000000000000000000e+00
Cu 3.752293536416172248e+00 7.886316774144846997e-01 0.000000000000000000e+00
Cu 3.743988310602162972e+00 8.774251641584653871e-01 0.000000000000000000e+00
Cu 3.991022690835056785e+00 8.931375302522225057e-02 0.000000000000000000e+00
Cu 3.980351226419225785e+00 1.819191486706827621e-01 0.000000000000000000e+00
Cu 3.969152951714610911e+00 2.718879597907749024e-01 0.000000000000000000e+00
Cu 3.956913575819815954e+00 3.600809284457844317e-01 0.000000000000000000e+00
Cu 3.943620023848444678e+00 4.475603461409590200e-01 0.000000000000000000e+00
Cu 3.929773998784745537e+00 5.347592667443140657e-01 0.000000000000000000e+00
Cu 3.915918688721116148e+00 6.216541198935131574e-01 0.000000000000000000e+00
Cu 3.902643348424535308e+00 7.083913439579897497e-01 0.000000000000000000e+00
Cu 3.890993216011295885e+00 7.954614718693194808e-01 0.000000000000000000e+00
Cu 3.882428941113733600e+00 8.831721723257743850e-01 0.000000000000000000e+00
Cu 4.119435059977003100e+00 1.027022207035086232e-01 0.000000000000000000e+00
Cu 4.113833023805215205e+00 1.932935208984473408e-01 0.000000000000000000e+00
Cu 4.106970564156696035e+00 2.816922736069503719e-01 0.000000000000000000e+00
Cu 4.097273067404656466e+00 3.692628134203795875e-01 0.000000000000000000e+00
Cu 4.085249770954974657e+00 4.567554769369081002e-01 0.000000000000000000e+00
Cu 4.072241911047538743e+00 5.439779394875927654e-01 0.000000000000000000e+00
Cu 4.058970443266405326e+00 6.307537534603955276e-01 0.000000000000000000e+00
Cu 4.045467071697351535e+00 7.166972506098476803e-01 0.000000000000000000e+00
Cu 4.032543763612466137e+00 8.024865776557317254e-01 0.000000000000000000e+00
Cu 4.022491159254381721e+00 8.893649819704849691e-01 0.000000000000000000e+00
Cu 4.252671095496826759e+00 1.103063915601225908e-01 0.000000000000000000e+00
Cu 4.254063092568086013e+00 1.994902300979971288e-01 0.000000000000000000e+00
Cu 4.251225800975449332e+00 2.872135847201169878e-01 0.000000000000000000e+00
Cu 4.242245287666790432e+00 3.759942244057624117e-01 0.000000000000000000e+00
Cu 4.230965059444063314e+00 4.645277254763446328e-01 0.000000000000000000e+00
Cu 4.218453856735946417e+00 5.525333537902887837e-01 0.000000000000000000e+00
Cu 4.205433432755976142e+00 6.399398077324484069e-01 0.000000000000000000e+00
Cu 4.192422759768020590e+00 7.267223472554700248e-01 0.000000000000000000e+00
Cu 4.177061769849292894e+00 8.114974929022651384e-01 0.000000000000000000e+00
Cu 4.162533408925218836e+00 8.978112338260705316e-01 0.000000000000000000e+00
Cu 4.384631753643428276e+00 1.031692730477091896e-01 0.000000000000000000e+00
Cu 4.403772456526242607e+00 1.970031686985421193e-01 0.000000000000000000e+00
Cu 4.399636755076931749e+00 2.903780692825321808e-01 0.000000000000000000e+00
Cu 4.391456239804965911e+00 3.819988144266091568e-01 0.000000000000000000e+00
Cu 4.380365400782101126e+00 4.720480643025623535e-01 0.000000000000000000e+00
Cu 4.368085492810574344e+00 5.610125743532716758e-01 0.000000000000000000e+00
Cu 4.355324238824200833e+00 6.493214814819556757e-01 0.000000000000000000e+00
Cu 4.341667236295268850e+00 7.376242600824360895e-01 0.000000000000000000e+00
Cu 4.327643095898978665e+00 8.271509075887127915e-01 0.000000000000000000e+00
Cu 4.295749234168892094e+00 9.161094687216759791e-01 0.000000000000000000e+00
