200

Cu 0.000000000000000000e+00 3.413977864769681542e-02 0.000000000000000000e+00
Cu 0.000000000000000000e+00 1.328080707506250346e-01 0.000000000000000000e+00
Cu 0.000000000000000000e+00 2.305042951562777664e-01 0.000000000000000000e+00
Cu 0.000000000000000000e+00 3.277611210650883122e-01 0.000000000000000000e+00
Cu 0.000000000000000000e+00 4.248707783417183248e-01 0.000000000000000000e+00
Cu 0.000000000000000000e+00 5.219797323224991681e-01 0.000000000000000000e+00
Cu 0.000000000000000000e+00 6.192048617697061275e-01 0.000000000000000000e+00
Cu 0.000000000000000000e+00 7.166776800793088764e-01 0.000000000000000000e+00
Cu 0.000000000000000000e+00 8.146593850786567614e-01 0.000000000000000000e+00
Cu 0.000000000000000000e+00 9.136341020800559098e-01 0.000000000000000000e+00
Cu 1.241533029884938216e-01 3.796536268777662981e-02 0.000000000000000000e+00
Cu 1.230566941373601453e-01 1.341274928866917349e-01 0.000000000000000000e+00
Cu 1.229908452845872302e-01 2.310573614791178731e-01 0.000000000000000000e+00
Cu 1.229365410410809684e-01 3.280292092331409948e-01 0.000000000000000000e+00
Cu 1.228550938066896719e-01 4.249668948833194571e-01 0.000000000000000000e+00
Cu 1.227372200243409261e-01 5.219335351999168093e-01 0.000000000000000000e+00
Cu 1.225910857706537932e-01 6.189949954047337943e-01 0.000000000000000000e+00
Cu 1.224391770375533733e-01 7.161986978302640194e-01 0.000000000000000000e+00
Cu 1.223274677919842512e-01 8.134525365530420604e-01 0.000000000000000000e+00
Cu 1.232390334924174935e-01 9.100391567045320595e-01 0.000000000000000000e+00
Cu 2.478236690126394692e-01 3.978093146579190359e-02 0.000000000000000000e+00
Cu 2.468801851857811425e-01 1.358090198499489476e-01 0.000000000000000000e+00
Cu 2.463550767428468180e-01 2.320620745737036195e-01 0.000000000000000000e+00
Cu 2.461326719428768572e-01 3.286034988976103133e-01 0.000000000000000000e+00
Cu 2.459200580334157671e-01 4.252389029074655769e-01 0.000000000000000000e+00
Cu 2.456757027900361157e-01 5.219357056515677717e-01 0.000000000000000000e+00
Cu 2.454233554083533608e-01 6.186998252897055739e-01 0.000000000000000000e+00
Cu 2.452309914478041086e-01 7.154774293870853619e-01 0.000000000000000000e+00
Cu 2.453805198099397455e-01 8.120724280334765677e-01 0.000000000000000000e+00
Cu 2.459825452076127850e-01 9.085467005604892510e-01 0.000000000000000000e+00
Cu 3.714078287895009045e-01 4.110052284317881194e-02 0.000000000000000000e+00
Cu 3.706273772060226790e-01 1.371016536547502440e-01 0.000000000000000000e+00
Cu 3.700442405798324841e-01 2.331802160387412282e-01 0.000000000000000000e+00
Cu 3.696500254425952869e-01 3.293897471309252811e-01 0.000000000000000000e+00
Cu 3.693080880766948515e-01 4.256851148953341157e-01 0.000000000000000000e+00
Cu 3.689231948392247551e-01 5.220214362936853592e-01 0.000000000000000000e+00
Cu 3.685589001902429551e-01 6.184182698601285999e-01 0.000000000000000000e+00
Cu 3.683386911822639775e-01 7.148331428695866574e-01 0.000000000000000000e+00
Cu 3.683412237164721548e-01 8.112426249644847376e-01 0.000000000000000000e+00
Cu 3.685823443961634416e-01 9.077135046731481527e-01 0.000000000000000000e+00
Cu 4.950081997803124079e-01 4.218135862241197825e-02 0.000000000000000000e+00
Cu 4.943559152884234309e-01 1.381599361839314366e-01 0.000000000000000000e+00
Cu 4.938335182218334674e-01 2.341786241978864869e-01 0.000000000000000000e+00
Cu 4.934291759686098566e-01 3.302462339946087289e-01 0.000000000000000000e+00
Cu 4.930724270368207485e-01 4.263189973586510861e-01 0.000000000000000000e+00
Cu 4.925720262063671417e-01 5.222785767776976229e-01 0.000000000000000000e+00
Cu 4.919840704594370950e-01 6.182585619446964165e-01 0.000000000000000000e+00
Cu 4.915465741742517380e-01 7.144532766922260247e-01 0.000000000000000000e+00
Cu 4.912550165337039032e-01 8.108355562717094456e-01 0.000000000000000000e+00
Cu 4.910771049799361188e-01 9.073546032994705968e-01 0.000000000000000000e+00
Cu 6.186721797507241938e-01 4.310105348212227294e-02 0.000000000000000000e+00
Cu 6.181280592512062855e-01 1.390409179661128702e-01 0.000000000000000000e+00
Cu 6.176923074764436583e-01 2.350226295900270657e-01 0.000000000000000000e+00
Cu 6.173658035376690112e-01 3.310451942858042007e-01 0.000000000000000000e+00
Cu 6.170906741110291360e-01 4.270593366643738453e-01 0.000000000000000000e+00
Cu 6.167798517581548623e-01 5.229395186703207354e-01 0.000000000000000000e+00
Cu 6.158016932874533778e-01 6.183371633867446038e-01 0.000000000000000000e+00
Cu 6.147269599236266924e-01 7.141979805265515902e-01 0.000000000000000000e+00
Cu 6.140809486256881833e-01 8.108515150034401042e-01 0.000000000000000000e+00
Cu 6.134350101654046927e-01 9.076320949219189860e-01 0.000000000000000000e+00
Cu 7.424459825975395777e-01 4.388533641498390536e-02 0.000000000000000000e+00
Cu 7.419930780826550221e-01 1.397621033977371197e-01 0.000000000000000000e+00
Cu 7.416383146396886561e-01 2.356933751528368093e-01 0.000000000000000000e+00
Cu 7.413909106210372357e-01 3.316890097439001428e-01 0.000000000000000000e+00
Cu 7.412586007604548000e-01 4.277422075388763734e-01 0.000000000000000000e+00
Cu 7.410958265688675217e-01 5.237775736883352184e-01 0.000000000000000000e+00
Cu 7.409843437176100167e-01 6.196037145059725137e-01 0.000000000000000000e+00
Cu 7.378967344205751289e-01 7.136194440331152800e-01 0.000000000000000000e+00
Cu 7.358860402877889229e-01 8.110648970877083475e-01 0.000000000000000000e+00
Cu 7.360250309460143470e-01 9.089476165938729091e-01 0.000000000000000000e+00
Cu 8.663807308664029927e-01 4.455117850045217653e-02 0.000000000000000000e+00
Cu 8.660030337231070519e-01 1.403352766408488272e-01 0.000000000000000000e+00
Cu 8.657089806028718248e-01 2.361817328069186761e-01 0.000000000000000000e+00
Cu 8.655251207397962609e-01 3.321120395711605888e-01 0.000000000000000000e+00
Cu 8.654489801754627898e-01 4.281542701938307882e-01 0.000000000000000000e+00
Cu 8.655580693908521139e-01 5.243587994422326259e-01 0.000000000000000000e+00
Cu 8.653605328214930559e-01 6.207770068813081021e-01 0.000000000000000000e+00
Cu 8.666614504300583777e-01 7.176224669084452223e-01 0.000000000000000000e+00
Cu 8.509085293711360354e-01 8.089050892289038064e-01 0.000000000000000000e+00
Cu 8.622295481622428426e-01 9.075364029654456877e-01 0.000000000000000000e+00
Cu 9.905303972362373699e-01 4.511893521751217384e-02 0.000000000000000000e+00
Cu 9.902127041606224589e-01 1.407793412759714979e-01 0.000000000000000000e+00
Cu 9.899683237610086284e-01 2.364968584640472771e-01 0.000000000000000000e+00
Cu 9.898223843678882750e-01 3.322882729235782651e-01 0.000000000000000000e+00
Cu 9.898188765340012463e-01 4.281819809888174344e-01 0.000000000000000000e+00
Cu 9.899002209707241651e-01 5.242321557909437324e-01 0.000000000000000000e+00
Cu 9.905532476969782785e-01 6.204954064549198511e-01 0.000000000000000000e+00
Cu 9.899219749880747710e-01 7.172007052071937006e-01 0.000000000000000000e+00
Cu 1.006471474280317580e+00 8.081863704066691856e-01 0.000000000000000000e+00
Cu 9.961323523156673243e-01 9.067853492376029001e-01 0.000000000000000000e+00
Cu 1.114944469249878223e+00 4.561414468128795197e-02 0.000000000000000000e+00
Cu 1.114677215594261250e+00 1.411229408171020550e-01 0.000000000000000000e+00
Cu 1.114481927537398942e+00 2.366664346301854960e-01 0.000000000000000000e+00
Cu 1.114397278719657658e+00 3.322379845051977587e-01 0.000000000000000000e+00
Cu 1.114452701859510286e+00 4.278309351007052452e-01 0.000000000000000000e+00
Cu 1.114813306969459239e+00 5.233864180288880785e-01 0.000000000000000000e+00
Cu 1.115377956080387367e+00 6.187377818165115118e-01 0.000000000000000000e+00
Cu 1.119142633071535053e+00 7.122791384298438055e-01 0.000000000000000000e+00
Cu 1.122012243926887587e+00 8.092672405025737037e-01 0.000000000000000000e+00
Cu 1.122904470956962220e+00 9.067235775188264846e-01 0.000000000000000000e+00
Cu 1.239660067176574287e+00 4.606625971870707825e-02 0.000000000000000000e+00
Cu 1.239440177617397998e+00 1.414041436315596756e-01 0.000000000000000000e+00
Cu 1.239313602189303420e+00 2.367375104744045555e-01 0.000000000000000000e+00
Cu 1.239317385697779716e+00 3.320286603337256337e-01 0.000000000000000000e+00
Cu 1.239533378787137652e+00 4.272278984900685916e-01 0.000000000000000000e+00
Cu 1.240050237328899296e+00 5.222511092113046871e-01 0.000000000000000000e+00
Cu 1.241492281347008397e+00 6.168066644308392021e-01 0.000000000000000000e+00
Cu 1.243269320552937041e+00 7.118776501756193253e-01 0.000000000000000000e+00
Cu 1.244831097526186925e+00 8.078042666343620004e-01 0.000000000000000000e+00
Cu 1.246537017050607155e+00 9.038857065707025518e-01 0.000000000000000000e+00
Cu 1.364691362883037051e+00 4.650512602356236119e-02 0.000000000000000000e+00
Cu 1.364526962062682092e+00 1.416675611598887108e-01 0.000000000000000000e+00
Cu 1.364497664881776817e+00 2.367753755395337334e-01 0.000000000000000000e+00
Cu 1.364634717709467981e+00 3.317653727024968968e-01 0.000000000000000000e+00
Cu 1.364990188693466999e+00 4.265961447180329769e-01 0.000000000000000000e+00
Cu 1.365718905561715379e+00 5.212341398645945478e-01 0.000000000000000000e+00
Cu 1.366757634710603408e+00 6.159338474331362834e-01 0.000000000000000000e+00
Cu 1.367892717399363134e+00 7.109793737844596340e-01 0.000000000000000000e+00
Cu 1.369125574910663001e+00 8.063508707518557417e-01 0.000000000000000000e+00
Cu 1.370448243278879819e+00 9.019294781193709643e-01 0.000000000000000000e+00
Cu 1.490021052506915966e+00 4.695194384978117891e-02 0.000000000000000000e+00
Cu 1.489935542486156894e+00 1.419541863473667842e-01 0.000000000000000000e+00
Cu 1.490046921420686843e+00 2.368465959455406389e-01 0.000000000000000000e+00
Cu 1.490339044008368807e+00 3.315594821599175956e-01 0.000000000000000000e+00
Cu 1.490819913534852104e+00 4.260889242245969322e-01 0.000000000000000000e+00
Cu 1.491466102180570186e+00 5.205512791324928834e-01 0.000000000000000000e+00
Cu 1.492207262380271127e+00 6.151367089735756410e-01 0.000000000000000000e+00
Cu 1.493020015814385815e+00 7.099679267483750555e-01 0.000000000000000000e+00
Cu 1.493932583247454593e+00 8.050669604730197326e-01 0.000000000000000000e+00
Cu 1.494936266058885854e+00 9.003824869885899140e-01 0.000000000000000000e+00
Cu 1.615593981546870728e+00 4.740240041746533739e-02 0.000000000000000000e+00
Cu 1.615638756706311296e+00 1.422796997060901958e-01 0.000000000000000000e+00
Cu 1.615953497973537711e+00 2.369877522145425464e-01 0.000000000000000000e+00
Cu 1.616443051996914848e+00 3.314614035942856085e-01 0.000000000000000000e+00
Cu 1.617007481326026230e+00 4.257476664809664024e-01 0.000000000000000000e+00
Cu 1.617556555104290972e+00 5.199888009292158442e-01 0.000000000000000000e+00
Cu 1.618057017210817961e+00 6.143531351078816982e-01 0.000000000000000000e+00
Cu 1.618553149567057092e+00 7.089646511941476437e-01 0.000000000000000000e+00
Cu 1.619129022639101301e+00 8.038678600989178635e-01 0.000000000000000000e+00
Cu 1.619865405462675323e+00 8.990018745482550866e-01 0.000000000000000000e+00
Cu 1.741315860048891606e+00 4.780271470077158968e-02 0.000000000000000000e+00
Cu 1.741589468698165888e+00 1.426063232128195191e-01 0.000000000000000000e+00
Cu 1.742215830706920210e+00 2.371652195477887415e-01 0.000000000000000000e+00
Cu 1.742982062845217506e+00 3.314333265858087629e-01 0.000000000000000000e+00
Cu 1.743677546079609231e+00 4.254934699013462329e-01 0.000000000000000000e+00
Cu 1.744153301045674898e+00 5.195015826861731911e-01 0.000000000000000000e+00
Cu 1.744389026313447388e+00 6.136297771441221460e-01 0.000000000000000000e+00
Cu 1.744496934966703439e+00 7.080239423047062219e-01 0.000000000000000000e+00
Cu 1.744661384748604993e+00 8.027561650775393298e-01 0.000000000000000000e+00
Cu 1.745079890720643734e+00 8.977710786589857550e-01 0.000000000000000000e+00
Cu 1.867049216350554319e+00 4.802154468177998597e-02 0.000000000000000000e+00
Cu 1.867733756534653899e+00 1.428126534006682602e-01 0.000000000000000000e+00
Cu 1.868854030824254275e+00 2.372432496425705695e-01 0.000000000000000000e+00
Cu 1.870030061043736591e+00 3.313310315685046858e-01 0.000000000000000000e+00
Cu 1.870927845283678170e+00 4.252384977606572525e-01 0.000000000000000000e+00
Cu 1.871350127328273327e+00 5.191181176872927683e-01 0.000000000000000000e+00
Cu 1.871280312101091026e+00 6.130795939661358718e-01 0.000000000000000000e+00
Cu 1.870885100590292671e+00 7.072697128506222342e-01 0.000000000000000000e+00
Cu 1.870474913269215778e+00 8.018414974733365508e-01 0.000000000000000000e+00
Cu 1.870413819520429843e+00 8.968016011851965841e-01 0.000000000000000000e+00
Cu 1.992590832317356231e+00 4.780841211872505908e-02 0.000000000000000000e+00
Cu 1.994031111346562968e+00 1.426536033556828620e-01 0.000000000000000000e+00
Cu 1.995943613999397126e+00 2.369395043681328528e-01 0.000000000000000000e+00
Cu 1.997661009013881994e+00 3.309039245320170020e-01 0.000000000000000000e+00
Cu 1.998760358477119192e+00 4.248730122148923205e-01 0.000000000000000000e+00
Cu 1.999145795984285323e+00 5.189109771740467725e-01 0.000000000000000000e+00
Cu 1.998801468930264891e+00 6.129213773573329860e-01 0.000000000000000000e+00
Cu 1.997794279537078665e+00 7.069644225102850177e-01 0.000000000000000000e+00
Cu 1.996526391320078586e+00 8.013590989938039755e-01 0.000000000000000000e+00
Cu 1.995651901930559191e+00 8.963345104726632151e-01 0.000000000000000000e+00
Cu 2.117585589107506827e+00 4.668500279069322245e-02 0.000000000000000000e+00
Cu 2.120521154681861642e+00 1.416486160657259019e-01 0.000000000000000000e+00
Cu 2.123667324277026314e+00 2.357397256234244620e-01 0.000000000000000000e+00
Cu 2.125867634988164667e+00 3.298498240137666127e-01 0.000000000000000000e+00
Cu 2.127021426850383534e+00 4.243225682727062575e-01 0.000000000000000000e+00
Cu 2.127384170350840709e+00 5.189238559556116348e-01 0.000000000000000000e+00
Cu 2.126939956210076144e+00 6.134299855899844056e-01 0.000000000000000000e+00
Cu 2.125403329172096623e+00 7.076030344410110251e-01 0.000000000000000000e+00
Cu 2.122851694431534320e+00 8.017786580598333934e-01 0.000000000000000000e+00
Cu 2.120432883071459607e+00 8.968406186936135338e-01 0.000000000000000000e+00
Cu 2.241232240699409406e+00 4.350848612005263349e-02 0.000000000000000000e+00
Cu 2.247603788712733586e+00 1.386334949666345184e-01 0.000000000000000000e+00
Cu 2.252160519681020823e+00 2.329636048325088304e-01 0.000000000000000000e+00
Cu 2.254337390896928639e+00 3.281635509180283461e-01 0.000000000000000000e+00
Cu 2.255487216161428332e+00 4.236033817027826109e-01 0.000000000000000000e+00
Cu 2.255837581520732993e+00 5.191102031499408298e-01 0.000000000000000000e+00
Cu 2.255373911125980513e+00 6.145847150794664371e-01 0.000000000000000000e+00
Cu 2.253838557819059840e+00 7.098462277234219853e-01 0.000000000000000000e+00
Cu 2.249849203839472622e+00 8.042563413335629408e-01 0.000000000000000000e+00
Cu 2.243954948944410166e+00 8.994613723968675201e-01 0.000000000000000000e+00
Cu 2.361109942674508577e+00 3.289384548129451608e-02 0.000000000000000000e+00
Cu 2.376085894558444878e+00 1.314428178504978562e-01 0.000000000000000000e+00
Cu 2.380449538037729962e+00 2.292760331539213936e-01 0.000000000000000000e+00
Cu 2.382853649906183868e+00 3.262718312494161110e-01 0.000000000000000000e+00
Cu 2.384014294528907563e+00 4.228414780423199737e-01 0.000000000000000000e+00
Cu 2.384357787823854213e+00 5.193126812072588194e-01 0.000000000000000000e+00
Cu 2.383871677682114054e+00 6.159285635322764296e-01 0.000000000000000000e+00
Cu 2.382105394117112418e+00 7.130086855259567535e-01 0.000000000000000000e+00
Cu 2.378315731882299833e+00 8.109437098132894484e-01 0.000000000000000000e+00
Cu 2.363822248501775025e+00 9.096079085086888893e-01 0.000000000000000000e+00
