200

Cu 0.000000000000000000e+00 2.387935801819374843e-02 0.000000000000000000e+00
Cu 0.000000000000000000e+00 1.244953074988720543e-01 0.000000000000000000e+00
Cu 0.000000000000000000e+00 2.244309908005585330e-01 0.000000000000000000e+00
Cu 0.000000000000000000e+00 3.240639856299639687e-01 0.000000000000000000e+00
Cu 0.000000000000000000e+00 4.236006452846011738e-01 0.000000000000000000e+00
Cu 0.000000000000000000e+00 5.231412765030981626e-01 0.000000000000000000e+00
Cu 0.000000000000000000e+00 6.227643615772124885e-01 0.000000000000000000e+00
Cu 0.000000000000000000e+00 7.225598094852767606e-01 0.000000000000000000e+00
Cu 0.000000000000000000e+00 8.227117212799387458e-01 0.000000000000000000e+00
Cu 0.000000000000000000e+00 9.235628608371999615e-01 0.000000000000000000e+00
Cu 1.187941704219579453e-01 2.671037297119747619e-02 0.000000000000000000e+00
Cu 1.179220952246290838e-01 1.254693296482289055e-01 0.000000000000000000e+00
Cu 1.178478326921584829e-01 2.248411446532546376e-01 0.000000000000000000e+00
Cu 1.177959222198125405e-01 3.242646621392039630e-01 0.000000000000000000e+00
Cu 1.177284014464096279e-01 4.236744968327011418e-01 0.000000000000000000e+00
Cu 1.176389835307446313e-01 5.231102793507587112e-01 0.000000000000000000e+00
Cu 1.175328815098638097e-01 6.226133267104551061e-01 0.000000000000000000e+00
Cu 1.174251102328898455e-01 7.222116611409687970e-01 0.000000000000000000e+00
Cu 1.173578732759245902e-01 8.218300090833856597e-01 0.000000000000000000e+00
Cu 1.180732899592621260e-01 9.209208910064702325e-01 0.000000000000000000e+00
Cu 2.372239438142465240e-01 2.807122213081753373e-02 0.000000000000000000e+00
Cu 2.364446578794934528e-01 1.267529596993200447e-01 0.000000000000000000e+00
Cu 2.359996195941623798e-01 2.256113715447514434e-01 0.000000000000000000e+00
Cu 2.358018168717557761e-01 3.247069084353004786e-01 0.000000000000000000e+00
Cu 2.356266880943548025e-01 4.238865370004195610e-01 0.000000000000000000e+00
Cu 2.354404835388052841e-01 5.231184831971057436e-01 0.000000000000000000e+00
Cu 2.352604598372791678e-01 6.223984055452743691e-01 0.000000000000000000e+00
Cu 2.351376031097112962e-01 7.216751899512795498e-01 0.000000000000000000e+00
Cu 2.352834932087641273e-01 8.207948860869103136e-01 0.000000000000000000e+00
Cu 2.357782139825669865e-01 9.198204745072356969e-01 0.000000000000000000e+00
Cu 3.555914753211624757e-01 2.910772087845377512e-02 0.000000000000000000e+00
Cu 3.549233291195107998e-01 1.277648570858174459e-01 0.000000000000000000e+00
Cu 3.544203790055555081e-01 2.264912031570041617e-01 0.000000000000000000e+00
Cu 3.540774796537775604e-01 3.253265768116703760e-01 0.000000000000000000e+00
Cu 3.537927667536548415e-01 4.242378452748194473e-01 0.000000000000000000e+00
Cu 3.534966082161860590e-01 5.231888284910846121e-01 0.000000000000000000e+00
Cu 3.532403835805721370e-01 6.221863035295240874e-01 0.000000000000000000e+00
Cu 3.531135125789208740e-01 7.211853840479108824e-01 0.000000000000000000e+00
Cu 3.531615239023009334e-01 8.201628250501621364e-01 0.000000000000000000e+00
Cu 3.533865916899320281e-01 9.191756931391177332e-01 0.000000000000000000e+00
Cu 4.739917652408154325e-01 2.999415066460749124e-02 0.000000000000000000e+00
Cu 4.734078126689340027e-01 1.286231185939600841e-01 0.000000000000000000e+00
Cu 4.729409052945023340e-01 2.272951314790999655e-01 0.000000000000000000e+00
Cu 4.725831005946541929e-01 3.260135520694502631e-01 0.000000000000000000e+00
Cu 4.722787417196707693e-01 4.247403367890624226e-01 0.000000000000000000e+00
Cu 4.718890806031625917e-01 5.233861876598957519e-01 0.000000000000000000e+00
Cu 4.714655345417635424e-01 6.220565600948330109e-01 0.000000000000000000e+00
Cu 4.711904689631397081e-01 7.208865685159070447e-01 0.000000000000000000e+00
Cu 4.710370738303534255e-01 8.198392016645651426e-01 0.000000000000000000e+00
Cu 4.709515122149631194e-01 9.188688636107840146e-01 0.000000000000000000e+00
Cu 5.924725711824123664e-01 3.078668146443166304e-02 0.000000000000000000e+00
Cu 5.919561912299753370e-01 1.293675542206177143e-01 0.000000000000000000e+00
Cu 5.915447310302990314e-01 2.279949252787486225e-01 0.000000000000000000e+00
Cu 5.912394867667090104e-01 3.266637319895902558e-01 0.000000000000000000e+00
Cu 5.910003172818160122e-01 4.253318110159570731e-01 0.000000000000000000e+00
Cu 5.907445921486106366e-01 5.238922788756387172e-01 0.000000000000000000e+00
Cu 5.900252370833333204e-01 6.220938045260134830e-01 0.000000000000000000e+00
Cu 5.892678828205897279e-01 7.206662356551067905e-01 0.000000000000000000e+00
Cu 5.888811013558341578e-01 8.198214544617274946e-01 0.000000000000000000e+00
Cu 5.884783041979056994e-01 9.190354838894567724e-01 0.000000000000000000e+00
Cu 7.110810371836006061e-01 3.150474147943461284e-02 0.000000000000000000e+00
Cu 7.106175231437916739e-01 1.300122352499687439e-01 0.000000000000000000e+00
Cu 7.102544239450886421e-01 2.285767875857739051e-01 0.000000000000000000e+00
Cu 7.100023272761475379e-01 3.272018932067642383e-01 0.000000000000000000e+00
Cu 7.098652621301700938e-01 4.258774331206796604e-01 0.000000000000000000e+00
Cu 7.097489214382308731e-01 5.245426271033903909e-01 0.000000000000000000e+00
Cu 7.096328498516385475e-01 6.230243330078536479e-01 0.000000000000000000e+00
Cu 7.074163380033213766e-01 7.201744314146181214e-01 0.000000000000000000e+00
Cu 7.059278910659523287e-01 8.199333506784077796e-01 0.000000000000000000e+00
Cu 7.063181548711240376e-01 9.199164312798507881e-01 0.000000000000000000e+00
Cu 8.298676815249961258e-01 3.216345370482937005e-02 0.000000000000000000e+00
Cu 8.294426549861613207e-01 1.305690328232652908e-01 0.000000000000000000e+00
Cu 8.291109337742256225e-01 2.290379807675092527e-01 0.000000000000000000e+00
Cu 8.288942933237332111e-01 3.275821926244978921e-01 0.000000000000000000e+00
Cu 8.287982239992676137e-01 4.262190717501932458e-01 0.000000000000000000e+00
Cu 8.288631627383398204e-01 5.249818930795587812e-01 0.000000000000000000e+00
Cu 8.287969906656958985e-01 6.239081923272111752e-01 0.000000000000000000e+00
Cu 8.295893613712995718e-01 7.230975867964078985e-01 0.000000000000000000e+00
Cu 8.182803128140363480e-01 8.182135575069979794e-01 0.000000000000000000e+00
Cu 8.268043215583323891e-01 9.186805054210420707e-01 0.000000000000000000e+00
Cu 9.488839429931165137e-01 3.278089106354151877e-02 0.000000000000000000e+00
Cu 9.484845189873046811e-01 1.310556929440351570e-01 0.000000000000000000e+00
Cu 9.481738986696937044e-01 2.293898279088889824e-01 0.000000000000000000e+00
Cu 9.479745345799585055e-01 3.277913113022239977e-01 0.000000000000000000e+00
Cu 9.479171345144358218e-01 4.262778203512426201e-01 0.000000000000000000e+00
Cu 9.479792816106796804e-01 5.248855309443507533e-01 0.000000000000000000e+00
Cu 9.484484057887319075e-01 6.236565150143977831e-01 0.000000000000000000e+00
Cu 9.482933260042106793e-01 7.226967539258217776e-01 0.000000000000000000e+00
Cu 9.604056539755035926e-01 8.175512365875046150e-01 0.000000000000000000e+00
Cu 9.528674645626918904e-01 9.179494996074798463e-01 0.000000000000000000e+00
Cu 1.068176579111231872e+00 3.337799077209814558e-02 0.000000000000000000e+00
Cu 1.067795185510179712e+00 1.314960361838808378e-01 0.000000000000000000e+00
Cu 1.067506414187389341e+00 2.296554143142650328e-01 0.000000000000000000e+00
Cu 1.067340383519812308e+00 3.278460150808893969e-01 0.000000000000000000e+00
Cu 1.067326275352550313e+00 4.260580313025323362e-01 0.000000000000000000e+00
Cu 1.067576034691551712e+00 5.242438856220857923e-01 0.000000000000000000e+00
Cu 1.068095809533668783e+00 6.222489177717870357e-01 0.000000000000000000e+00
Cu 1.070957534789805488e+00 7.189243813014525308e-01 0.000000000000000000e+00
Cu 1.073292993472821699e+00 8.182227751986720365e-01 0.000000000000000000e+00
Cu 1.073940648045407453e+00 9.177703729033444002e-01 0.000000000000000000e+00
Cu 1.187781238468901046e+00 3.397671114150625782e-02 0.000000000000000000e+00
Cu 1.187417802857687610e+00 1.319190125997558305e-01 0.000000000000000000e+00
Cu 1.187168373592420778e+00 2.298697756594102748e-01 0.000000000000000000e+00
Cu 1.187063456013818685e+00 3.277938136822876602e-01 0.000000000000000000e+00
Cu 1.187165899174233763e+00 4.256490309341469658e-01 0.000000000000000000e+00
Cu 1.187563101814028244e+00 5.233622094980360240e-01 0.000000000000000000e+00
Cu 1.188695582454993627e+00 6.207288165625902687e-01 0.000000000000000000e+00
Cu 1.190118897825553690e+00 7.185093592323935630e-01 0.000000000000000000e+00
Cu 1.191399096630208376e+00 8.169248475522369324e-01 0.000000000000000000e+00
Cu 1.192869847219825807e+00 9.154193601592524043e-01 0.000000000000000000e+00
Cu 1.307714135564373548e+00 3.459702105821760992e-02 0.000000000000000000e+00
Cu 1.307379896762660199e+00 1.323567602645518981e-01 0.000000000000000000e+00
Cu 1.307198806331441920e+00 2.300805141500612827e-01 0.000000000000000000e+00
Cu 1.307194149679286488e+00 3.277124121824625536e-01 0.000000000000000000e+00
Cu 1.307410492318733963e+00 4.252166159015939306e-01 0.000000000000000000e+00
Cu 1.307960332061831155e+00 5.225741452739697257e-01 0.000000000000000000e+00
Cu 1.308786440599986278e+00 6.199912420425643944e-01 0.000000000000000000e+00
Cu 1.309722278728940870e+00 7.176771772475106781e-01 0.000000000000000000e+00
Cu 1.310789635680005505e+00 8.155997207259951809e-01 0.000000000000000000e+00
Cu 1.312011128254136239e+00 9.136558997319943476e-01 0.000000000000000000e+00
Cu 1.427964204869070608e+00 3.524983113523541545e-02 0.000000000000000000e+00
Cu 1.427686144188530237e+00 1.328369705926566169e-01 0.000000000000000000e+00
Cu 1.427616611659098700e+00 2.303366001460449564e-01 0.000000000000000000e+00
Cu 1.427739157466857423e+00 3.276868144250392190e-01 0.000000000000000000e+00
Cu 1.428054766486344551e+00 4.248860917554780348e-01 0.000000000000000000e+00
Cu 1.428538608160507817e+00 5.220338886157979141e-01 0.000000000000000000e+00
Cu 1.429133860778780019e+00 6.192835238613734195e-01 0.000000000000000000e+00
Cu 1.429830992391568190e+00 7.167275973039975989e-01 0.000000000000000000e+00
Cu 1.430668541740538480e+00 8.143764754393842953e-01 0.000000000000000000e+00
Cu 1.431653498454122486e+00 9.121883100805756595e-01 0.000000000000000000e+00
Cu 1.548487363198792099e+00 3.592325867091841068e-02 0.000000000000000000e+00
Cu 1.548318526744228985e+00 1.333652826483001930e-01 0.000000000000000000e+00
Cu 1.548423679977842360e+00 2.306618840092785616e-01 0.000000000000000000e+00
Cu 1.548716934586872540e+00 3.277551935117109516e-01 0.000000000000000000e+00
Cu 1.549107769017857184e+00 4.246856015843935017e-01 0.000000000000000000e+00
Cu 1.549517105710330522e+00 5.215751461350747187e-01 0.000000000000000000e+00
Cu 1.549920886833253020e+00 6.185666706492228828e-01 0.000000000000000000e+00
Cu 1.550366483216434332e+00 7.157635560206929703e-01 0.000000000000000000e+00
Cu 1.550936139323460194e+00 8.132017651908979294e-01 0.000000000000000000e+00
Cu 1.551708136703678909e+00 9.108296630270364957e-01 0.000000000000000000e+00
Cu 1.669205077851945829e+00 3.656255466981475633e-02 0.000000000000000000e+00
Cu 1.669241552791812522e+00 1.339007069042467135e-01 0.000000000000000000e+00
Cu 1.669625113802613914e+00 2.310195089384639855e-01 0.000000000000000000e+00
Cu 1.670168240070572407e+00 3.278782261651984609e-01 0.000000000000000000e+00
Cu 1.670683289880834810e+00 4.245487989429070907e-01 0.000000000000000000e+00
Cu 1.671038411303053195e+00 5.211684936092432219e-01 0.000000000000000000e+00
Cu 1.671220266533498977e+00 6.178896531303934569e-01 0.000000000000000000e+00
Cu 1.671336023279686334e+00 7.148410615438862692e-01 0.000000000000000000e+00
Cu 1.671555234959885894e+00 8.120861091469265824e-01 0.000000000000000000e+00
Cu 1.672055406890340157e+00 9.095781261621009861e-01 0.000000000000000000e+00
Cu 1.790001952511520722e+00 3.704580574467392778e-02 0.000000000000000000e+00
Cu 1.790414759076241369e+00 1.343287239076317863e-01 0.000000000000000000e+00
Cu 1.791245606716889371e+00 2.312813185730007159e-01 0.000000000000000000e+00
Cu 1.792162283797005706e+00 3.279232588059683984e-01 0.000000000000000000e+00
Cu 1.792866962575629941e+00 4.243994591316564979e-01 0.000000000000000000e+00
Cu 1.793183301266451091e+00 5.208459706667525335e-01 0.000000000000000000e+00
Cu 1.793100506946100348e+00 6.173614738328486728e-01 0.000000000000000000e+00
Cu 1.792774693491717031e+00 7.140779143089069914e-01 0.000000000000000000e+00
Cu 1.792487587683103012e+00 8.111332602547711712e-01 0.000000000000000000e+00
Cu 1.792560568735505289e+00 9.085392758655057577e-01 0.000000000000000000e+00
Cu 1.910708576957784510e+00 3.714752398839356318e-02 0.000000000000000000e+00
Cu 1.911814153141962569e+00 1.344246538928897117e-01 0.000000000000000000e+00
Cu 1.913359137086690254e+00 2.311887592124446666e-01 0.000000000000000000e+00
Cu 1.914762255092648857e+00 3.276636737767142371e-01 0.000000000000000000e+00
Cu 1.915651789395148796e+00 4.241411627035532317e-01 0.000000000000000000e+00
Cu 1.915941529446876013e+00 5.206764856954727572e-01 0.000000000000000000e+00
Cu 1.915620996522981789e+00 6.171838438178890440e-01 0.000000000000000000e+00
Cu 1.914757245873891067e+00 7.137157547938584035e-01 0.000000000000000000e+00
Cu 1.913708172155460741e+00 8.105589007204425656e-01 0.000000000000000000e+00
Cu 1.913046181936222556e+00 9.079306433494416240e-01 0.000000000000000000e+00
Cu 2.031034057088859868e+00 3.644141584107079418e-02 0.000000000000000000e+00
Cu 2.033496688771599725e+00 1.337527653668203753e-01 0.000000000000000000e+00
Cu 2.036128674938944449e+00 2.302825372606496779e-01 0.000000000000000000e+00
Cu 2.037947652613310456e+00 3.268370017631128110e-01 0.000000000000000000e+00
Cu 2.038885258942596312e+00 4.237107859067905657e-01 0.000000000000000000e+00
Cu 2.039158513755921387e+00 5.207001035252348808e-01 0.000000000000000000e+00
Cu 2.038756869722005760e+00 6.175979495243182349e-01 0.000000000000000000e+00
Cu 2.037443322666808498e+00 7.141978180995274261e-01 0.000000000000000000e+00
Cu 2.035270969740173186e+00 8.107888693469393893e-01 0.000000000000000000e+00
Cu 2.033216818688740712e+00 9.081715589469975258e-01 0.000000000000000000e+00
Cu 2.150349916019207885e+00 3.392041244252206461e-02 0.000000000000000000e+00
Cu 2.155837300098072618e+00 1.312763308930702810e-01 0.000000000000000000e+00
Cu 2.159632130083072976e+00 2.279929459259574520e-01 0.000000000000000000e+00
Cu 2.161430447158628088e+00 3.254490664157552726e-01 0.000000000000000000e+00
Cu 2.162347896924814439e+00 4.231304652127578225e-01 0.000000000000000000e+00
Cu 2.162611955515174600e+00 5.208722925390507630e-01 0.000000000000000000e+00
Cu 2.162212988485947562e+00 6.185782294448708418e-01 0.000000000000000000e+00
Cu 2.160903725193393576e+00 7.160782738899421629e-01 0.000000000000000000e+00
Cu 2.157548871233904375e+00 8.128519208122597650e-01 0.000000000000000000e+00
Cu 2.152442581467866045e+00 9.102659928272136547e-01 0.000000000000000000e+00
Cu 2.266922105049090419e+00 2.496527913229624335e-02 0.000000000000000000e+00
Cu 2.279330833688622437e+00 1.252333227317571629e-01 0.000000000000000000e+00
Cu 2.283028789402075986e+00 2.248937468636628967e-01 0.000000000000000000e+00
Cu 2.284978436181746453e+00 3.238791941527176532e-01 0.000000000000000000e+00
Cu 2.285905014155751314e+00 4.225118857536416805e-01 0.000000000000000000e+00
Cu 2.286163646724816534e+00 5.210588661796790033e-01 0.000000000000000000e+00
Cu 2.285746304100852999e+00 6.197237009050641232e-01 0.000000000000000000e+00
Cu 2.284282074850960687e+00 7.187677435348641675e-01 0.000000000000000000e+00
Cu 2.281028360560655166e+00 8.184997533747868648e-01 0.000000000000000000e+00
Cu 2.269004961934213860e+00 9.188477744264524905e-01 0.000000000000000000e+00
