200

Cu 0.000000000000000000e+00 4.402358799816030732e-02 0.000000000000000000e+00
Cu 0.000000000000000000e+00 1.408040236560189062e-01 0.000000000000000000e+00
Cu 0.000000000000000000e+00 2.363310732609906484e-01 0.000000000000000000e+00
Cu 0.000000000000000000e+00 3.312907017238592711e-01 0.000000000000000000e+00
Cu 0.000000000000000000e+00 4.260551684927869065e-01 0.000000000000000000e+00
Cu 0.000000000000000000e+00 5.208142758582861020e-01 0.000000000000000000e+00
Cu 0.000000000000000000e+00 6.157213412085084103e-01 0.000000000000000000e+00
Cu 0.000000000000000000e+00 7.109468828453064937e-01 0.000000000000000000e+00
Cu 0.000000000000000000e+00 8.068237228187015164e-01 0.000000000000000000e+00
Cu 0.000000000000000000e+00 9.039749456749283096e-01 0.000000000000000000e+00
Cu 1.293148728350834442e-01 4.874850948262478972e-02 0.000000000000000000e+00
Cu 1.280463279499289564e-01 1.424367336969412090e-01 0.000000000000000000e+00
Cu 1.279946748880930463e-01 2.370145986431689000e-01 0.000000000000000000e+00
Cu 1.279381298630326569e-01 3.316199194070299505e-01 0.000000000000000000e+00
Cu 1.278435541351535809e-01 4.261706625995678732e-01 0.000000000000000000e+00
Cu 1.276984015914385817e-01 5.207525177680367712e-01 0.000000000000000000e+00
Cu 1.275139381057913690e-01 6.154551479616012788e-01 0.000000000000000000e+00
Cu 1.273205735184941012e-01 7.103451933026879717e-01 0.000000000000000000e+00
Cu 1.271623675227485373e-01 8.053183795639439202e-01 0.000000000000000000e+00
Cu 1.282254863257690225e-01 8.995128944825432349e-01 0.000000000000000000e+00
Cu 2.580527983049346052e-01 5.097452777938434043e-02 0.000000000000000000e+00
Cu 2.569915627908191391e-01 1.444627991371980613e-01 0.000000000000000000e+00
Cu 2.564118373949568763e-01 2.382227583555957817e-01 0.000000000000000000e+00
Cu 2.561737144933234900e-01 3.323090838445799666e-01 0.000000000000000000e+00
Cu 2.559282012278766838e-01 4.264939815846798821e-01 0.000000000000000000e+00
Cu 2.556286177506197910e-01 5.207464077595851393e-01 0.000000000000000000e+00
Cu 2.553046324121379107e-01 6.150843937546645046e-01 0.000000000000000000e+00
Cu 2.550389189469303153e-01 7.094565547058963029e-01 0.000000000000000000e+00
Cu 2.551742577950057433e-01 8.036328810591684135e-01 0.000000000000000000e+00
Cu 2.558500623625338255e-01 8.976600503824693211e-01 0.000000000000000000e+00
Cu 3.866931499088349655e-01 5.254315153240522729e-02 0.000000000000000000e+00
Cu 3.858341745142943036e-01 1.459966389286428134e-01 0.000000000000000000e+00
Cu 3.851965587146665149e-01 2.395402760025881483e-01 0.000000000000000000e+00
Cu 3.847670227773967166e-01 3.332342989879727990e-01 0.000000000000000000e+00
Cu 3.843778140841599411e-01 4.270198203261851844e-01 0.000000000000000000e+00
Cu 3.839103199929815857e-01 5.208440252618654620e-01 0.000000000000000000e+00
Cu 3.834359507867656780e-01 6.147402080183635986e-01 0.000000000000000000e+00
Cu 3.831105237510097350e-01 7.086747952759787639e-01 0.000000000000000000e+00
Cu 3.830507091868723957e-01 8.026247698636351791e-01 0.000000000000000000e+00
Cu 3.832928231047005307e-01 8.966549996990202942e-01 0.000000000000000000e+00
Cu 5.153385044972016438e-01 5.379219940107208414e-02 0.000000000000000000e+00
Cu 5.146407687598205660e-01 1.472252870624516374e-01 0.000000000000000000e+00
Cu 5.140816878103189325e-01 2.407008826794222456e-01 0.000000000000000000e+00
Cu 5.136440966646786954e-01 3.342301043486397005e-01 0.000000000000000000e+00
Cu 5.132457415163506065e-01 4.277633038642181806e-01 0.000000000000000000e+00
Cu 5.126436482340008816e-01 5.211538275150622290e-01 0.000000000000000000e+00
Cu 5.118932509684575027e-01 6.145559530316581087e-01 0.000000000000000000e+00
Cu 5.112785316925093637e-01 7.082196708412710207e-01 0.000000000000000000e+00
Cu 5.108352997779829208e-01 8.021355088476183059e-01 0.000000000000000000e+00
Cu 5.105696322932513631e-01 8.962444014547391591e-01 0.000000000000000000e+00
Cu 6.440338776740746063e-01 5.482015189442721037e-02 0.000000000000000000e+00
Cu 6.434751028868073153e-01 1.482222803269006295e-01 0.000000000000000000e+00
Cu 6.430253724969895446e-01 2.416664462759325616e-01 0.000000000000000000e+00
Cu 6.426850326020285831e-01 3.351541085530102548e-01 0.000000000000000000e+00
Cu 6.423756558730477906e-01 4.286282685610419141e-01 0.000000000000000000e+00
Cu 6.420189076085870417e-01 5.219510152343567189e-01 0.000000000000000000e+00
Cu 6.407896067050582456e-01 6.146761721498010811e-01 0.000000000000000000e+00
Cu 6.394018095257457679e-01 7.079319461459454565e-01 0.000000000000000000e+00
Cu 6.384736361423909434e-01 8.021674148148718597e-01 0.000000000000000000e+00
Cu 6.376056233106888183e-01 8.966027778057508169e-01 0.000000000000000000e+00
Cu 7.728226273895658638e-01 5.565871972312629729e-02 0.000000000000000000e+00
Cu 7.723844185139274732e-01 1.490079593833512350e-01 0.000000000000000000e+00
Cu 7.720411688365562686e-01 2.424136175829433304e-01 0.000000000000000000e+00
Cu 7.717980591955084790e-01 3.358899161043332193e-01 0.000000000000000000e+00
Cu 7.716696101621547399e-01 4.294326189735505617e-01 0.000000000000000000e+00
Cu 7.714459732871591369e-01 5.229506890251520712e-01 0.000000000000000000e+00
Cu 7.713660658834243788e-01 6.162505710987892238e-01 0.000000000000000000e+00
Cu 7.674049515290313206e-01 7.072802432359807101e-01 0.000000000000000000e+00
Cu 7.649386582729545969e-01 8.024540922046055069e-01 0.000000000000000000e+00
Cu 7.647375657595624210e-01 8.983000171572581571e-01 0.000000000000000000e+00
Cu 9.017542748384668183e-01 5.632564962144032822e-02 0.000000000000000000e+00
Cu 9.014202836396830731e-01 1.495927319146482248e-01 0.000000000000000000e+00
Cu 9.011604333050688975e-01 2.429253240591053020e-01 0.000000000000000000e+00
Cu 9.010058641223968046e-01 3.363525101152474162e-01 0.000000000000000000e+00
Cu 9.009397398223571996e-01 4.299106864293221197e-01 0.000000000000000000e+00
Cu 9.010935305876003332e-01 5.236658123910039597e-01 0.000000000000000000e+00
Cu 9.007175761855473750e-01 6.176789633397600232e-01 0.000000000000000000e+00
Cu 9.026309555600622314e-01 7.122983432981730978e-01 0.000000000000000000e+00
Cu 8.824777868221774790e-01 7.998530734399750264e-01 0.000000000000000000e+00
Cu 8.964564049857504102e-01 8.967225789753446863e-01 0.000000000000000000e+00
Cu 1.030883470373564759e+00 5.684228789085479794e-02 0.000000000000000000e+00
Cu 1.030636908603131063e+00 1.499950300867778086e-01 0.000000000000000000e+00
Cu 1.030450555932325374e+00 2.432065944065248952e-01 0.000000000000000000e+00
Cu 1.030349545014156210e+00 3.365007123362639407e-01 0.000000000000000000e+00
Cu 1.030394807425262460e+00 4.299142262171662399e-01 0.000000000000000000e+00
Cu 1.030474875490186681e+00 5.235179046630991095e-01 0.000000000000000000e+00
Cu 1.031334413240490910e+00 6.173782379870063064e-01 0.000000000000000000e+00
Cu 1.030096387828267179e+00 7.118695886932847605e-01 0.000000000000000000e+00
Cu 1.051017265921206700e+00 7.990957958408729800e-01 0.000000000000000000e+00
Cu 1.037984793040781506e+00 8.959658766774064587e-01 0.000000000000000000e+00
Cu 1.160260678490821817e+00 5.723788173715151778e-02 0.000000000000000000e+00
Cu 1.160090934073624513e+00 1.502472053750764092e-01 0.000000000000000000e+00
Cu 1.159975638484793459e+00 2.432885183090934822e-01 0.000000000000000000e+00
Cu 1.159961888916734019e+00 3.363574038118773424e-01 0.000000000000000000e+00
Cu 1.160073221684058797e+00 4.294499173851880069e-01 0.000000000000000000e+00
Cu 1.160539289425210452e+00 5.224946381946903307e-01 0.000000000000000000e+00
Cu 1.161096782897854895e+00 6.153290429973896636e-01 0.000000000000000000e+00
Cu 1.165740473323772397e+00 7.058915787425660282e-01 0.000000000000000000e+00
Cu 1.169049009593299715e+00 8.006208096031913746e-01 0.000000000000000000e+00
Cu 1.170243860379629242e+00 8.960573504400191069e-01 0.000000000000000000e+00
Cu 1.289923436476645646e+00 5.754905446203742447e-02 0.000000000000000000e+00
Cu 1.289824561874523878e+00 1.503959295776913230e-01 0.000000000000000000e+00
Cu 1.289802490457609085e+00 2.432297269755318292e-01 0.000000000000000000e+00
Cu 1.289898075154310320e+00 3.360105903922372961e-01 0.000000000000000000e+00
Cu 1.290212096926766527e+00 4.286814145125004138e-01 0.000000000000000000e+00
Cu 1.290819422953259243e+00 5.211525122940431354e-01 0.000000000000000000e+00
Cu 1.292537869776483550e+00 6.130427467634755878e-01 0.000000000000000000e+00
Cu 1.294633974815337707e+00 7.055243272276254807e-01 0.000000000000000000e+00
Cu 1.296467698943966962e+00 7.990585568954193807e-01 0.000000000000000000e+00
Cu 1.298356794000699921e+00 8.928294324195302778e-01 0.000000000000000000e+00
Cu 1.419883397813196835e+00 5.781544666540327365e-02 0.000000000000000000e+00
Cu 1.419860671287907605e+00 1.504976883207782834e-01 0.000000000000000000e+00
Cu 1.419958455477913439e+00 2.431124111966821433e-01 0.000000000000000000e+00
Cu 1.420214509605217446e+00 3.355904262821084449e-01 0.000000000000000000e+00
Cu 1.420683387931974462e+00 4.278862319307188966e-01 0.000000000000000000e+00
Cu 1.421561697012183600e+00 5.199492806245115117e-01 0.000000000000000000e+00
Cu 1.422785132177748268e+00 6.120695356464929127e-01 0.000000000000000000e+00
Cu 1.424102279730295129e+00 7.045991039292390790e-01 0.000000000000000000e+00
Cu 1.425478416903238177e+00 7.975398474072707966e-01 0.000000000000000000e+00
Cu 1.426862081096825330e+00 8.907585376017305157e-01 0.000000000000000000e+00
Cu 1.550118038593582437e+00 5.806830663200831383e-02 0.000000000000000000e+00
Cu 1.550190942605490507e+00 1.506057163974398871e-01 0.000000000000000000e+00
Cu 1.550451621538936564e+00 2.430183678712065920e-01 0.000000000000000000e+00
Cu 1.550882860287122300e+00 3.352308329542871279e-01 0.000000000000000000e+00
Cu 1.551499071532599805e+00 4.272354745918681695e-01 0.000000000000000000e+00
Cu 1.552280372142701204e+00 5.191588644029669908e-01 0.000000000000000000e+00
Cu 1.553146904115016325e+00 6.112205112569734089e-01 0.000000000000000000e+00
Cu 1.554058591923503485e+00 7.035722191904348888e-01 0.000000000000000000e+00
Cu 1.555025845138787499e+00 7.962488818973811888e-01 0.000000000000000000e+00
Cu 1.556020521158953507e+00 8.891872337603715648e-01 0.000000000000000000e+00
Cu 1.680563761060582362e+00 5.831081750210640596e-02 0.000000000000000000e+00
Cu 1.680781307901829669e+00 1.507445796887588174e-01 0.000000000000000000e+00
Cu 1.681265632750160499e+00 2.429947620088566962e-01 0.000000000000000000e+00
Cu 1.681913712232319114e+00 3.349904926988469533e-01 0.000000000000000000e+00
Cu 1.682618777663750453e+00 4.267823360952951450e-01 0.000000000000000000e+00
Cu 1.683282642749597269e+00 5.185263167116657135e-01 0.000000000000000000e+00
Cu 1.683863089905810462e+00 6.104103462689066673e-01 0.000000000000000000e+00
Cu 1.684397385951868831e+00 7.025755949243510656e-01 0.000000000000000000e+00
Cu 1.684966327733767422e+00 7.950730614453876965e-01 0.000000000000000000e+00
Cu 1.685649361643246413e+00 8.878319813335195931e-01 0.000000000000000000e+00
Cu 1.811115030737054488e+00 5.849118050894643039e-02 0.000000000000000000e+00
Cu 1.811575933558557283e+00 1.508800236120830529e-01 0.000000000000000000e+00
Cu 1.812394449299878918e+00 2.430111257158315552e-01 0.000000000000000000e+00
Cu 1.813336912863855677e+00 3.348337892885313583e-01 0.000000000000000000e+00
Cu 1.814175263288868800e+00 4.264377938260024981e-01 0.000000000000000000e+00
Cu 1.814747550162699286e+00 5.179912858525966834e-01 0.000000000000000000e+00
Cu 1.815025964569980665e+00 6.096794731164543180e-01 0.000000000000000000e+00
Cu 1.815122650919632541e+00 7.016596749196941651e-01 0.000000000000000000e+00
Cu 1.815230261432258629e+00 7.940090773192375329e-01 0.000000000000000000e+00
Cu 1.815560520022669433e+00 8.866634642369868313e-01 0.000000000000000000e+00
Cu 1.941618294072624318e+00 5.847207243059851511e-02 0.000000000000000000e+00
Cu 1.942510714705102393e+00 1.508870324087233927e-01 0.000000000000000000e+00
Cu 1.943854442450664077e+00 2.429284172322790369e-01 0.000000000000000000e+00
Cu 1.945230068521352385e+00 3.346099996342903893e-01 0.000000000000000000e+00
Cu 1.946276350176562531e+00 4.261051704668534224e-01 0.000000000000000000e+00
Cu 1.946780751032479717e+00 5.175764602651578006e-01 0.000000000000000000e+00
Cu 1.946720436141878618e+00 6.091397470987098828e-01 0.000000000000000000e+00
Cu 1.946266229055853447e+00 7.009502882273429547e-01 0.000000000000000000e+00
Cu 1.945747539392028047e+00 7.931692978574638175e-01 0.000000000000000000e+00
Cu 1.945562091518252545e+00 8.857957805695055864e-01 0.000000000000000000e+00
Cu 2.071844194551331952e+00 5.798532762059349643e-02 0.000000000000000000e+00
Cu 2.073530859854264552e+00 1.505080511865674042e-01 0.000000000000000000e+00
Cu 2.075721446041744134e+00 2.424507982328047984e-01 0.000000000000000000e+00
Cu 2.077677271110269785e+00 3.340537522678305726e-01 0.000000000000000000e+00
Cu 2.078935122978539773e+00 4.256649095344190448e-01 0.000000000000000000e+00
Cu 2.079392405741596672e+00 5.173548447651661331e-01 0.000000000000000000e+00
Cu 2.079027765235659242e+00 6.090184689836092291e-01 0.000000000000000000e+00
Cu 2.077904602070544726e+00 7.007209035762952398e-01 0.000000000000000000e+00
Cu 2.076457735628167267e+00 7.928004696590418288e-01 0.000000000000000000e+00
Cu 2.075407546222086008e+00 8.854857941720125636e-01 0.000000000000000000e+00
Cu 2.201384290679505806e+00 5.651468564279268220e-02 0.000000000000000000e+00
Cu 2.204656610762874003e+00 1.492352133668879977e-01 0.000000000000000000e+00
Cu 2.208193616866460651e+00 2.410279537986792786e-01 0.000000000000000000e+00
Cu 2.210688880442311266e+00 3.328329646742732018e-01 0.000000000000000000e+00
Cu 2.212004743521178263e+00 4.250338792240508368e-01 0.000000000000000000e+00
Cu 2.212432920582537488e+00 5.173716431240336089e-01 0.000000000000000000e+00
Cu 2.211952176761973643e+00 6.096149505725416695e-01 0.000000000000000000e+00
Cu 2.210231060141299775e+00 7.014997423494331308e-01 0.000000000000000000e+00
Cu 2.207375701050840355e+00 7.933986116851354797e-01 0.000000000000000000e+00
Cu 2.204679722958086341e+00 8.862413283364938277e-01 0.000000000000000000e+00
Cu 2.329283424658369572e+00 5.281956375897037259e-02 0.000000000000000000e+00
Cu 2.336294052729848580e+00 1.458216295813553054e-01 0.000000000000000000e+00
Cu 2.341474641740693308e+00 2.378860988058036641e-01 0.000000000000000000e+00
Cu 2.343937859135202473e+00 3.309320066622586931e-01 0.000000000000000000e+00
Cu 2.345269846865610130e+00 4.242206428193361356e-01 0.000000000000000000e+00
Cu 2.345682237969896278e+00 5.175805836001218241e-01 0.000000000000000000e+00
Cu 2.345155651976197575e+00 6.109134688217668918e-01 0.000000000000000000e+00
Cu 2.343438346935186267e+00 7.040372296380404959e-01 0.000000000000000000e+00
Cu 2.338905746897287585e+00 7.962026651742387662e-01 0.000000000000000000e+00
Cu 2.332422492762388444e+00 8.893028291107775152e-01 0.000000000000000000e+00
Cu 2.452413605461690960e+00 4.090643386229728812e-02 0.000000000000000000e+00
Cu 2.469621123362077064e+00 1.377338305542780139e-01 0.000000000000000000e+00
Cu 2.474469560964988268e+00 2.337665607452438787e-01 0.000000000000000000e+00
Cu 2.477244385236687663e+00 3.288098058069975904e-01 0.000000000000000000e+00
Cu 2.478584485050660646e+00 4.233619139414943056e-01 0.000000000000000000e+00
Cu 2.478988618600133531e+00 5.178053568351070890e-01 0.000000000000000000e+00
Cu 2.478439844819594562e+00 6.124165999335480226e-01 0.000000000000000000e+00
Cu 2.476406880492469487e+00 7.075676249561259068e-01 0.000000000000000000e+00
Cu 2.472213927532541433e+00 8.037284506003908868e-01 0.000000000000000000e+00
Cu 2.455539156694441338e+00 9.007007209550313975e-01 0.000000000000000000e+00
