200

Cu 0.000000000000000000e+00 6.296158527430795182e-02 0.000000000000000000e+00
Cu 0.000000000000000000e+00 1.560867331942708269e-01 0.000000000000000000e+00
Cu 0.000000000000000000e+00 2.474129622604536449e-01 0.000000000000000000e+00
Cu 0.000000000000000000e+00 3.379385858380390961e-01 0.000000000000000000e+00
Cu 0.000000000000000000e+00 4.281811302462867341e-01 0.000000000000000000e+00
Cu 0.000000000000000000e+00 5.184094784024094738e-01 0.000000000000000000e+00
Cu 0.000000000000000000e+00 6.088445377202671427e-01 0.000000000000000000e+00
Cu 0.000000000000000000e+00 6.997285004145257226e-01 0.000000000000000000e+00
Cu 0.000000000000000000e+00 7.915241767415267526e-01 0.000000000000000000e+00
Cu 0.000000000000000000e+00 8.851365963199007147e-01 0.000000000000000000e+00
Cu 1.394055136806171546e-01 6.927215119055640802e-02 0.000000000000000000e+00
Cu 1.379076419025008771e-01 1.582673710605433381e-01 0.000000000000000000e+00
Cu 1.378925735952340748e-01 2.483277496055966982e-01 0.000000000000000000e+00
Cu 1.378285838256933793e-01 3.383765102999695684e-01 0.000000000000000000e+00
Cu 1.377065521273084514e-01 4.283308846184183394e-01 0.000000000000000000e+00
Cu 1.375060391938793258e-01 5.183188044518209914e-01 0.000000000000000000e+00
Cu 1.372445668264394014e-01 6.084753694540763203e-01 0.000000000000000000e+00
Cu 1.369701802145959768e-01 6.989053517055352494e-01 0.000000000000000000e+00
Cu 1.367121320222266789e-01 7.894918097305074767e-01 0.000000000000000000e+00
Cu 1.379746092958259174e-01 8.791377597765442919e-01 0.000000000000000000e+00
Cu 2.781039182107656327e-01 7.221810819424327732e-02 0.000000000000000000e+00
Cu 2.769016212530743815e-01 1.608662702652549070e-01 0.000000000000000000e+00
Cu 2.762610343902939802e-01 2.498766846317635459e-01 0.000000000000000000e+00
Cu 2.760044678527294737e-01 3.392609750078225406e-01 0.000000000000000000e+00
Cu 2.756972657214550870e-01 4.287422222243128522e-01 0.000000000000000000e+00
Cu 2.752868948533343518e-01 5.182967963109269549e-01 0.000000000000000000e+00
Cu 2.748131375093256223e-01 6.079704193772257348e-01 0.000000000000000000e+00
Cu 2.743839781615017293e-01 6.977280481697297754e-01 0.000000000000000000e+00
Cu 2.744451127510932897e-01 7.872910894690740014e-01 0.000000000000000000e+00
Cu 2.751905465055187183e-01 8.766450194393048401e-01 0.000000000000000000e+00
Cu 4.167073405686438359e-01 7.421951713813537688e-02 0.000000000000000000e+00
Cu 4.157546157714228086e-01 1.628032851961389582e-01 0.000000000000000000e+00
Cu 4.150549405694602956e-01 2.515154905214195269e-01 0.000000000000000000e+00
Cu 4.145809944561184568e-01 3.404114676267964712e-01 0.000000000000000000e+00
Cu 4.141099409975879664e-01 4.294011359088211188e-01 0.000000000000000000e+00
Cu 4.134808613187307413e-01 5.184178214262211704e-01 0.000000000000000000e+00
Cu 4.127692991063401373e-01 6.075229251188551949e-01 0.000000000000000000e+00
Cu 4.121944577571811652e-01 6.967153024980723419e-01 0.000000000000000000e+00
Cu 4.119618658670406441e-01 7.859746182257608682e-01 0.000000000000000000e+00
Cu 4.121682278015023626e-01 8.753333300760526292e-01 0.000000000000000000e+00
Cu 5.553050064985709522e-01 7.576280843006232002e-02 0.000000000000000000e+00
Cu 5.545537093265996420e-01 1.643214558775569489e-01 0.000000000000000000e+00
Cu 5.539521408530545532e-01 2.529423948152928481e-01 0.000000000000000000e+00
Cu 5.534670747867016516e-01 3.416320440847380735e-01 0.000000000000000000e+00
Cu 5.530003096793887352e-01 4.303273550988250817e-01 0.000000000000000000e+00
Cu 5.522002503772696080e-01 5.188256854761509329e-01 0.000000000000000000e+00
Cu 5.511128190694764006e-01 6.073081191253608679e-01 0.000000000000000000e+00
Cu 5.500875618681526635e-01 6.961255727051187669e-01 0.000000000000000000e+00
Cu 5.492978744471401775e-01 7.853237983091451158e-01 0.000000000000000000e+00
Cu 5.488624629552240064e-01 8.748148433608784469e-01 0.000000000000000000e+00
Cu 6.939347078273229164e-01 7.698608668490507234e-02 0.000000000000000000e+00
Cu 6.933611317388533868e-01 1.655236042448136879e-01 0.000000000000000000e+00
Cu 6.928942181599386796e-01 2.541175753113830149e-01 0.000000000000000000e+00
Cu 6.925346310266817795e-01 3.427695907482751214e-01 0.000000000000000000e+00
Cu 6.921493154549962501e-01 4.314031002703938578e-01 0.000000000000000000e+00
Cu 6.917162474090275959e-01 5.198681424019825359e-01 0.000000000000000000e+00
Cu 6.899665588943239003e-01 6.075176791317672409e-01 0.000000000000000000e+00
Cu 6.879348486253433759e-01 6.957795258606721545e-01 0.000000000000000000e+00
Cu 6.863546446467242435e-01 7.853360127678380431e-01 0.000000000000000000e+00
Cu 6.851106863309339712e-01 8.752464021284290796e-01 0.000000000000000000e+00
Cu 8.326321650710732936e-01 7.793187309967418430e-02 0.000000000000000000e+00
Cu 8.322162183968082605e-01 1.664337572904201756e-01 0.000000000000000000e+00
Cu 8.318912933199725801e-01 2.550094072237559240e-01 0.000000000000000000e+00
Cu 8.316453902522187303e-01 3.436761451549574242e-01 0.000000000000000000e+00
Cu 8.315219872259819178e-01 4.324331046048093263e-01 0.000000000000000000e+00
Cu 8.311262513705506283e-01 5.211523089560716748e-01 0.000000000000000000e+00
Cu 8.311850929179575020e-01 6.096686909155105694e-01 0.000000000000000000e+00
Cu 8.253466226104343439e-01 6.950055016033385158e-01 0.000000000000000000e+00
Cu 8.221180381860337949e-01 7.856768089689801782e-01 0.000000000000000000e+00
Cu 8.210556539073849969e-01 8.775088152333586633e-01 0.000000000000000000e+00
Cu 9.714402080113788696e-01 7.861678739052113674e-02 0.000000000000000000e+00
Cu 9.711684166258042206e-01 1.670566240244052425e-01 0.000000000000000000e+00
Cu 9.709555600047142798e-01 2.555810446605123465e-01 0.000000000000000000e+00
Cu 9.708452838294668874e-01 3.442293422996731689e-01 0.000000000000000000e+00
Cu 9.707664596977301219e-01 4.330491958201099223e-01 0.000000000000000000e+00
Cu 9.710275202723519516e-01 5.221367395675272638e-01 0.000000000000000000e+00
Cu 9.701464692231921427e-01 6.115654946773901868e-01 0.000000000000000000e+00
Cu 9.735754512224037427e-01 7.019943526296446024e-01 0.000000000000000000e+00
Cu 9.444051150216884460e-01 7.820079880237240655e-01 0.000000000000000000e+00
Cu 9.636208916611925801e-01 8.754690071550910169e-01 0.000000000000000000e+00
Cu 1.110412372181066587e+00 7.906110964853445278e-02 0.000000000000000000e+00
Cu 1.110265573560603958e+00 1.674059228216938644e-01 0.000000000000000000e+00
Cu 1.110164079290271832e+00 2.558249538530823486e-01 0.000000000000000000e+00
Cu 1.110123335508660380e+00 3.443513890555368606e-01 0.000000000000000000e+00
Cu 1.110257453871384747e+00 4.330338924513233989e-01 0.000000000000000000e+00
Cu 1.110273255042452334e+00 5.219757941383468269e-01 0.000000000000000000e+00
Cu 1.111648278443695625e+00 6.112549728611554878e-01 0.000000000000000000e+00
Cu 1.108860954694206091e+00 7.015821810436720929e-01 0.000000000000000000e+00
Cu 1.138710485047370602e+00 7.812098091253391052e-01 0.000000000000000000e+00
Cu 1.120327234444825404e+00 8.747258676673130839e-01 0.000000000000000000e+00
Cu 1.249597485998358515e+00 7.929924026906773338e-02 0.000000000000000000e+00
Cu 1.249566264599612841e+00 1.675187625098369382e-01 0.000000000000000000e+00
Cu 1.249566478751275689e+00 2.557761945067629217e-01 0.000000000000000000e+00
Cu 1.249664917973801082e+00 3.440680812584071546e-01 0.000000000000000000e+00
Cu 1.249850735790679401e+00 4.323952911401954813e-01 0.000000000000000000e+00
Cu 1.250535524580153712e+00 5.206550661973650129e-01 0.000000000000000000e+00
Cu 1.250955768155866288e+00 6.087260825056965974e-01 0.000000000000000000e+00
Cu 1.257445924563458384e+00 6.936100016858773865e-01 0.000000000000000000e+00
Cu 1.261439633243374381e+00 7.838668968161865980e-01 0.000000000000000000e+00
Cu 1.263381093410334888e+00 8.753253679473138593e-01 0.000000000000000000e+00
Cu 1.389032504223022935e+00 7.938083943064408454e-02 0.000000000000000000e+00
Cu 1.389105466797712962e+00 1.674574533181527325e-01 0.000000000000000000e+00
Cu 1.389238725389108309e+00 2.555150308777538459e-01 0.000000000000000000e+00
Cu 1.389472547716564810e+00 3.435098408270528259e-01 0.000000000000000000e+00
Cu 1.389952871513138177e+00 4.313682813245933168e-01 0.000000000000000000e+00
Cu 1.390683180458991863e+00 5.190003388694746089e-01 0.000000000000000000e+00
Cu 1.392926812116823898e+00 6.058351605636876913e-01 0.000000000000000000e+00
Cu 1.395628647698143210e+00 6.933571804538841699e-01 0.000000000000000000e+00
Cu 1.398044724957868024e+00 7.822649089688941126e-01 0.000000000000000000e+00
Cu 1.400191660221868251e+00 8.715850846047245026e-01 0.000000000000000000e+00
Cu 1.528722941982087136e+00 7.936392449350240796e-02 0.000000000000000000e+00
Cu 1.528902211876873141e+00 1.672998519758080449e-01 0.000000000000000000e+00
Cu 1.529187618011208283e+00 2.551551612094734023e-01 0.000000000000000000e+00
Cu 1.529628313107585180e+00 3.428505554289157375e-01 0.000000000000000000e+00
Cu 1.530271389113441627e+00 4.303350889409622848e-01 0.000000000000000000e+00
Cu 1.531402860744992100e+00 5.175180995078056956e-01 0.000000000000000000e+00
Cu 1.532962529641125782e+00 6.047344734976110026e-01 0.000000000000000000e+00
Cu 1.534647887589953852e+00 6.924547752772298725e-01 0.000000000000000000e+00
Cu 1.536298490890785295e+00 7.807479484712966933e-01 0.000000000000000000e+00
Cu 1.537748378323083198e+00 8.694509328432777906e-01 0.000000000000000000e+00
Cu 1.668638393826692434e+00 7.929762880916753354e-02 0.000000000000000000e+00
Cu 1.668936245178256117e+00 1.671200186878275540e-01 0.000000000000000000e+00
Cu 1.669417949071709151e+00 2.548023190328537191e-01 0.000000000000000000e+00
Cu 1.670060275556539908e+00 3.422615344736023024e-01 0.000000000000000000e+00
Cu 1.670889750498019133e+00 4.294797697925386015e-01 0.000000000000000000e+00
Cu 1.671897546734420370e+00 5.165906431740486804e-01 0.000000000000000000e+00
Cu 1.672994955261838168e+00 6.038560103999427442e-01 0.000000000000000000e+00
Cu 1.674099028245306986e+00 6.914846258791691458e-01 0.000000000000000000e+00
Cu 1.675164971456726493e+00 7.795398355362395115e-01 0.000000000000000000e+00
Cu 1.676113684975379048e+00 8.679278573725270896e-01 0.000000000000000000e+00
Cu 1.808703424972776475e+00 7.919800586109734808e-02 0.000000000000000000e+00
Cu 1.809164941123700299e+00 1.669559799928907740e-01 0.000000000000000000e+00
Cu 1.809898261424436772e+00 2.545191946272414296e-01 0.000000000000000000e+00
Cu 1.810785862801763679e+00 3.418083193996708791e-01 0.000000000000000000e+00
Cu 1.811710858482084241e+00 4.288749881329895208e-01 0.000000000000000000e+00
Cu 1.812565264871811355e+00 5.158899201993627504e-01 0.000000000000000000e+00
Cu 1.813289157260240314e+00 6.030690183701832296e-01 0.000000000000000000e+00
Cu 1.813896984702088488e+00 6.905819901523293503e-01 0.000000000000000000e+00
Cu 1.814450761316334759e+00 7.784889065763749283e-01 0.000000000000000000e+00
Cu 1.815018301807600265e+00 8.666970190687826037e-01 0.000000000000000000e+00
Cu 1.948798774972930525e+00 7.901709485689367707e-02 0.000000000000000000e+00
Cu 1.949520647319894717e+00 1.667791279563350659e-01 0.000000000000000000e+00
Cu 1.950618872761230360e+00 2.542793708203200387e-01 0.000000000000000000e+00
Cu 1.951824183725091144e+00 3.414592645218288980e-01 0.000000000000000000e+00
Cu 1.952881453898187125e+00 4.284148588785763323e-01 0.000000000000000000e+00
Cu 1.953609138149427604e+00 5.153267075768532823e-01 0.000000000000000000e+00
Cu 1.953962921800493246e+00 6.023943425449482802e-01 0.000000000000000000e+00
Cu 1.954045146787977583e+00 6.897879926746303125e-01 0.000000000000000000e+00
Cu 1.954053144754664295e+00 7.775881716426075174e-01 0.000000000000000000e+00
Cu 1.954216847305493054e+00 8.657117628138017995e-01 0.000000000000000000e+00
Cu 2.088750020240367267e+00 7.861041045947618489e-02 0.000000000000000000e+00
Cu 2.089925579379299236e+00 1.664613641476658801e-01 0.000000000000000000e+00
Cu 2.091591027646522161e+00 2.539431530198798526e-01 0.000000000000000000e+00
Cu 2.093258957590374170e+00 3.410583684644610813e-01 0.000000000000000000e+00
Cu 2.094525945966565939e+00 4.279898008995305925e-01 0.000000000000000000e+00
Cu 2.095157229207547545e+00 5.149084147536260314e-01 0.000000000000000000e+00
Cu 2.095116147167314757e+00 6.019338845061322774e-01 0.000000000000000000e+00
Cu 2.094570637233039267e+00 6.892268473745554180e-01 0.000000000000000000e+00
Cu 2.093872843682847318e+00 7.769519612764899108e-01 0.000000000000000000e+00
Cu 2.093474560178741672e+00 8.650876625860051128e-01 0.000000000000000000e+00
Cu 2.228290291357140962e+00 7.768689669727159297e-02 0.000000000000000000e+00
Cu 2.230301643605768547e+00 1.657331465951053795e-01 0.000000000000000000e+00
Cu 2.232890390713221596e+00 2.532053077989209755e-01 0.000000000000000000e+00
Cu 2.235193219662895192e+00 3.403272145753682976e-01 0.000000000000000000e+00
Cu 2.236682365538748218e+00 4.274670473571974827e-01 0.000000000000000000e+00
Cu 2.237245631747808883e+00 5.147034326082083888e-01 0.000000000000000000e+00
Cu 2.236850091439628763e+00 6.019169182215120539e-01 0.000000000000000000e+00
Cu 2.235546600295808872e+00 6.891773482175680421e-01 0.000000000000000000e+00
Cu 2.233817083863075315e+00 7.768369152612475403e-01 0.000000000000000000e+00
Cu 2.232494372715540187e+00 8.651000631944079089e-01 0.000000000000000000e+00
Cu 2.366925838691032791e+00 7.567921307423031152e-02 0.000000000000000000e+00
Cu 2.370629589794407632e+00 1.640638631948147519e-01 0.000000000000000000e+00
Cu 2.374737301487885865e+00 2.514801738195167613e-01 0.000000000000000000e+00
Cu 2.377681183602629034e+00 3.388938337776870591e-01 0.000000000000000000e+00
Cu 2.379229286425829759e+00 4.267525712823220241e-01 0.000000000000000000e+00
Cu 2.379749947474273153e+00 5.147551267530827701e-01 0.000000000000000000e+00
Cu 2.379211019640683489e+00 6.026732965943629727e-01 0.000000000000000000e+00
Cu 2.377185271121540211e+00 6.901984264630870447e-01 0.000000000000000000e+00
Cu 2.373855428842813087e+00 7.777596890103859462e-01 0.000000000000000000e+00
Cu 2.370766010207371988e+00 8.663051764652591746e-01 0.000000000000000000e+00
Cu 2.503442490085857841e+00 7.122896623945471073e-02 0.000000000000000000e+00
Cu 2.511281076580285543e+00 1.601336125438487801e-01 0.000000000000000000e+00
Cu 2.517505184210463653e+00 2.478431675280458046e-01 0.000000000000000000e+00
Cu 2.520376691212446119e+00 3.367289781012728911e-01 0.000000000000000000e+00
Cu 2.521992940091663193e+00 4.258373365238083963e-01 0.000000000000000000e+00
Cu 2.522490244950923000e+00 5.150219789916267166e-01 0.000000000000000000e+00
Cu 2.521839838702321757e+00 6.041921949956869931e-01 0.000000000000000000e+00
Cu 2.519845103056521207e+00 6.931847936833361867e-01 0.000000000000000000e+00
Cu 2.514355100074429306e+00 7.810325262947943603e-01 0.000000000000000000e+00
Cu 2.507069963376889810e+00 8.700623343999854820e-01 0.000000000000000000e+00
Cu 2.633206352103480530e+00 5.745829294826148431e-02 0.000000000000000000e+00
Cu 2.654372806028210352e+00 1.507408251571553393e-01 0.000000000000000000e+00
Cu 2.659838386629373996e+00 2.431743286853655650e-01 0.000000000000000000e+00
Cu 2.663228677188017368e+00 3.343267035792714115e-01 0.000000000000000000e+00
Cu 2.664829785843604526e+00 4.248741191090493197e-01 0.000000000000000000e+00
Cu 2.665316158230900179e+00 5.152971683767737510e-01 0.000000000000000000e+00
Cu 2.664661400080850395e+00 6.059262001331031655e-01 0.000000000000000000e+00
Cu 2.662142520046484773e+00 6.972273770473086385e-01 0.000000000000000000e+00
Cu 2.657416322213334681e+00 7.898313427226829608e-01 0.000000000000000000e+00
Cu 2.636808076036343262e+00 8.833048802753183937e-01 0.000000000000000000e+00
