200

Cu 0.000000000000000000e+00 -1.249464950312470036e-03 0.000000000000000000e+00
Cu 0.000000000000000000e+00 1.022996728180684822e-01 0.000000000000000000e+00
Cu 0.000000000000000000e+00 2.059465314366976108e-01 0.000000000000000000e+00
Cu 0.000000000000000000e+00 3.098639489566023530e-01 0.000000000000000000e+00
Cu 0.000000000000000000e+00 4.141247606291882932e-01 0.000000000000000000e+00
Cu 0.000000000000000000e+00 5.187471170717320446e-01 0.000000000000000000e+00
Cu 0.000000000000000000e+00 6.237373143902381623e-01 0.000000000000000000e+00
Cu 0.000000000000000000e+00 7.291025408133098296e-01 0.000000000000000000e+00
Cu 0.000000000000000000e+00 8.348376947841968931e-01 0.000000000000000000e+00
Cu 0.000000000000000000e+00 9.408914493553046654e-01 0.000000000000000000e+00
Cu 1.109563020832748104e-01 3.681005595922296533e-04 0.000000000000000000e+00
Cu 1.096677421831512428e-01 1.030932181927253638e-01 0.000000000000000000e+00
Cu 1.087343838527026624e-01 2.065311179095780103e-01 0.000000000000000000e+00
Cu 1.078250767743745842e-01 3.104129255737233528e-01 0.000000000000000000e+00
Cu 1.069207738338528307e-01 4.146862427221532088e-01 0.000000000000000000e+00
Cu 1.060120243056871109e-01 5.193377216411091402e-01 0.000000000000000000e+00
Cu 1.050858203556908482e-01 6.243602945785988734e-01 0.000000000000000000e+00
Cu 1.041202774908509404e-01 7.297650121797899514e-01 0.000000000000000000e+00
Cu 1.030764489851624527e-01 8.356225077200806206e-01 0.000000000000000000e+00
Cu 1.016940457804498127e-01 9.422069331576917728e-01 0.000000000000000000e+00
Cu 2.217047553508336710e-01 2.343785778474033639e-03 0.000000000000000000e+00
Cu 2.195212282828463701e-01 1.050946926045611268e-01 0.000000000000000000e+00
Cu 2.174905148090238716e-01 2.083707437217126590e-01 0.000000000000000000e+00
Cu 2.156010283904977176e-01 3.122083054155390114e-01 0.000000000000000000e+00
Cu 2.137615047876856023e-01 4.165138604377546794e-01 0.000000000000000000e+00
Cu 2.119394666200795641e-01 5.212338169464352244e-01 0.000000000000000000e+00
Cu 2.100976778474314133e-01 6.263386077705854760e-01 0.000000000000000000e+00
Cu 2.081711360794699373e-01 7.318343286465077702e-01 0.000000000000000000e+00
Cu 2.060294889803221674e-01 8.377984630544487166e-01 0.000000000000000000e+00
Cu 2.035892228570649054e-01 9.442780568882191972e-01 0.000000000000000000e+00
Cu 3.322579330471057690e-01 5.209700138070218721e-03 0.000000000000000000e+00
Cu 3.291665812785860568e-01 1.080231708367159205e-01 0.000000000000000000e+00
Cu 3.261490958204052437e-01 2.113416792513243547e-01 0.000000000000000000e+00
Cu 3.232449030438407922e-01 3.151931515840795672e-01 0.000000000000000000e+00
Cu 3.204441716234760484e-01 4.195560095649972787e-01 0.000000000000000000e+00
Cu 3.177087841221200026e-01 5.243695624397513022e-01 0.000000000000000000e+00
Cu 3.149854365120292043e-01 6.295822680957231521e-01 0.000000000000000000e+00
Cu 3.121736951572149921e-01 7.351632530636149632e-01 0.000000000000000000e+00
Cu 3.091459330039301734e-01 8.410995894564934350e-01 0.000000000000000000e+00
Cu 3.057792762820921162e-01 9.474310006595122458e-01 0.000000000000000000e+00
Cu 4.425793582884989807e-01 9.022540150762895991e-03 0.000000000000000000e+00
Cu 4.385391722522783420e-01 1.119177119589219865e-01 0.000000000000000000e+00
Cu 4.345412882742002991e-01 2.153304741893938279e-01 0.000000000000000000e+00
Cu 4.306480433889010584e-01 3.192748411342169468e-01 0.000000000000000000e+00
Cu 4.268899989287860963e-01 4.237251512270823195e-01 0.000000000000000000e+00
Cu 4.232642120375067485e-01 5.286305348371255208e-01 0.000000000000000000e+00
Cu 4.197306400810822957e-01 6.339273362699491265e-01 0.000000000000000000e+00
Cu 4.161945946855809542e-01 7.395444911614812433e-01 0.000000000000000000e+00
Cu 4.124895747216864028e-01 8.454160584827071778e-01 0.000000000000000000e+00
Cu 4.084028601893224808e-01 9.515394181768512816e-01 0.000000000000000000e+00
Cu 5.526371902255448054e-01 1.381264298683749538e-02 0.000000000000000000e+00
Cu 5.475930951811311953e-01 1.167835367973974331e-01 0.000000000000000000e+00
Cu 5.425794840115556461e-01 2.203017651910783858e-01 0.000000000000000000e+00
Cu 5.377044484090583998e-01 3.243659580190454417e-01 0.000000000000000000e+00
Cu 5.330321270279879675e-01 4.289184161632301207e-01 0.000000000000000000e+00
Cu 5.285836282122681196e-01 5.338748199582579179e-01 0.000000000000000000e+00
Cu 5.243494627757102622e-01 6.391681583531603206e-01 0.000000000000000000e+00
Cu 5.202577085620312403e-01 7.447353394926540249e-01 0.000000000000000000e+00
Cu 5.161212751982187097e-01 8.505014826952984608e-01 0.000000000000000000e+00
Cu 5.116223422005532484e-01 9.563718018626549133e-01 0.000000000000000000e+00
Cu 6.624251634370863506e-01 1.963130769535702605e-02 0.000000000000000000e+00
Cu 6.562970946814697948e-01 1.226464734408495988e-01 0.000000000000000000e+00
Cu 6.502010296854556781e-01 2.262347880252971732e-01 0.000000000000000000e+00
Cu 6.443350456912986246e-01 3.304006181264891318e-01 0.000000000000000000e+00
Cu 6.388178046306018931e-01 4.350312901635023932e-01 0.000000000000000000e+00
Cu 6.336936971423893228e-01 5.399708265109125493e-01 0.000000000000000000e+00
Cu 6.289206965902687241e-01 6.450863798927169990e-01 0.000000000000000000e+00
Cu 6.244275282129607696e-01 7.504169276630998642e-01 0.000000000000000000e+00
Cu 6.200786191635923039e-01 8.559544816264769151e-01 0.000000000000000000e+00
Cu 6.155918801866170353e-01 9.615606629180546427e-01 0.000000000000000000e+00
Cu 7.719394885939704354e-01 2.657729894678076757e-02 0.000000000000000000e+00
Cu 7.646471381164844372e-01 1.295923779755559502e-01 0.000000000000000000e+00
Cu 7.573789777783161981e-01 2.331531830210587797e-01 0.000000000000000000e+00
Cu 7.504685772706923830e-01 3.373155382869095220e-01 0.000000000000000000e+00
Cu 7.442084798283706837e-01 4.419612996285367523e-01 0.000000000000000000e+00
Cu 7.386514640546164578e-01 5.467468621504997239e-01 0.000000000000000000e+00
Cu 7.336694299097282768e-01 6.515105721488718693e-01 0.000000000000000000e+00
Cu 7.288636354094741865e-01 7.562409858348329017e-01 0.000000000000000000e+00
Cu 7.244255131817672888e-01 8.613151901650248909e-01 0.000000000000000000e+00
Cu 7.204552437055806724e-01 9.663018219630366001e-01 0.000000000000000000e+00
Cu 8.811346671071321746e-01 3.474903993569885413e-02 0.000000000000000000e+00
Cu 8.726326678530919034e-01 1.377758158068242422e-01 0.000000000000000000e+00
Cu 8.641581052486921877e-01 2.412114622514234530e-01 0.000000000000000000e+00
Cu 8.560918599419787833e-01 3.451099915162553211e-01 0.000000000000000000e+00
Cu 8.491215055865053429e-01 4.495238243883534768e-01 0.000000000000000000e+00
Cu 8.436858070000498033e-01 5.539664790761030799e-01 0.000000000000000000e+00
Cu 8.387853093852950526e-01 6.579843822675884857e-01 0.000000000000000000e+00
Cu 8.337825012879611641e-01 7.625223411627064518e-01 0.000000000000000000e+00
Cu 2.111959629007723827e+00 7.115052800018032420e-01 0.000000000000000000e+00
Cu 2.093938446804380238e+00 8.148033205487421604e-01 0.000000000000000000e+00
Cu 9.899309124038322416e-01 4.426485093688482114e-02 0.000000000000000000e+00
Cu 9.801269505425831419e-01 1.472961463719949238e-01 0.000000000000000000e+00
Cu 9.705539260686790737e-01 2.507580437585021360e-01 0.000000000000000000e+00
Cu 9.614028717991380812e-01 3.541435884798156408e-01 0.000000000000000000e+00
Cu 9.535977607702585956e-01 4.575378979363639576e-01 0.000000000000000000e+00
Cu 9.494304041691532525e-01 5.604233591056196895e-01 0.000000000000000000e+00
Cu 9.443179003363463275e-01 6.645050469031285045e-01 0.000000000000000000e+00
Cu 2.239604066710793262e+00 6.280550498650155911e-01 0.000000000000000000e+00
Cu 2.219902457630131387e+00 7.299113929046655569e-01 0.000000000000000000e+00
Cu 2.203842444594864780e+00 8.305722485260300658e-01 0.000000000000000000e+00
Cu 1.098164943276177086e+00 5.518633132411531611e-02 0.000000000000000000e+00
Cu 1.087009540249973094e+00 1.583585946696465518e-01 0.000000000000000000e+00
Cu 1.076102442602910436e+00 2.617455629283764185e-01 0.000000000000000000e+00
Cu 1.066350931652614742e+00 3.657203542715675160e-01 0.000000000000000000e+00
Cu 2.414661386062081139e+00 3.420252619602970334e-01 0.000000000000000000e+00
Cu 2.385604035958333924e+00 4.424915278184383682e-01 0.000000000000000000e+00
Cu 2.369841160667004232e+00 5.455896426157490486e-01 0.000000000000000000e+00
Cu 2.349240281801168617e+00 6.462600437938329501e-01 0.000000000000000000e+00
Cu 2.332721512325386382e+00 7.458286045654763941e-01 0.000000000000000000e+00
Cu 2.319185117485467185e+00 8.444000842688502706e-01 0.000000000000000000e+00
Cu 1.205712443314075566e+00 6.778938945306778319e-02 0.000000000000000000e+00
Cu 1.192863976640654355e+00 1.709413729802796988e-01 0.000000000000000000e+00
Cu 1.180922361615320160e+00 2.748623812180297499e-01 0.000000000000000000e+00
Cu 2.546868774169869454e+00 2.649321849177406762e-01 0.000000000000000000e+00
Cu 2.520835397924870325e+00 3.656399439990590250e-01 0.000000000000000000e+00
Cu 2.502335673131228511e+00 4.650075431285364824e-01 0.000000000000000000e+00
Cu 2.480545763417207450e+00 5.626412630520152280e-01 0.000000000000000000e+00
Cu 2.464348088715242913e+00 6.616127593112238747e-01 0.000000000000000000e+00
Cu 2.450293128542154530e+00 7.590304799520321000e-01 0.000000000000000000e+00
Cu 2.439160542840321355e+00 8.556304929461862052e-01 0.000000000000000000e+00
Cu 1.312194200239342745e+00 8.202139199106318890e-02 0.000000000000000000e+00
Cu 1.297752882637224658e+00 1.857001247300439084e-01 0.000000000000000000e+00
Cu 2.682309812292906326e+00 1.897864438361389072e-01 0.000000000000000000e+00
Cu 2.655891034118856631e+00 2.886711286714060964e-01 0.000000000000000000e+00
Cu 2.634636846363740847e+00 3.859925629006650261e-01 0.000000000000000000e+00
Cu 2.616007169277460687e+00 4.828583699790918171e-01 0.000000000000000000e+00
Cu 2.598951599672594703e+00 5.791336795374106838e-01 0.000000000000000000e+00
Cu 2.584182663295296667e+00 6.743770245384540507e-01 0.000000000000000000e+00
Cu 2.572364831329603696e+00 7.696760423543034246e-01 0.000000000000000000e+00
Cu 2.563132908766865725e+00 8.644343937650721399e-01 0.000000000000000000e+00
Cu 1.417531367313249246e+00 9.900784400105390459e-02 0.000000000000000000e+00
Cu 2.818070908261713026e+00 1.163469462791987263e-01 0.000000000000000000e+00
Cu 2.792817196409630665e+00 2.142239578723114379e-01 0.000000000000000000e+00
Cu 2.771730299416381715e+00 3.099386658230454117e-01 0.000000000000000000e+00
Cu 2.753289768407626958e+00 4.043292571510233580e-01 0.000000000000000000e+00
Cu 2.736772431137115102e+00 4.982358879732236567e-01 0.000000000000000000e+00
Cu 2.721970373873834337e+00 5.917850303797939082e-01 0.000000000000000000e+00
Cu 2.709056112870511512e+00 6.850300384464518277e-01 0.000000000000000000e+00
Cu 2.698459441751224652e+00 7.781420361782359629e-01 0.000000000000000000e+00
Cu 2.690644636942321366e+00 8.712045802881827061e-01 0.000000000000000000e+00
Cu 2.950987628685525443e+00 4.241704060891900857e-02 0.000000000000000000e+00
Cu 2.929677508578252709e+00 1.401820078230444078e-01 0.000000000000000000e+00
Cu 2.910596880737498005e+00 2.348622891457993467e-01 0.000000000000000000e+00
Cu 2.893492366592059106e+00 3.277406384037955811e-01 0.000000000000000000e+00
Cu 2.877803354207784992e+00 4.196251656647414507e-01 0.000000000000000000e+00
Cu 2.863222438312793550e+00 5.110069122542528763e-01 0.000000000000000000e+00
Cu 2.849843070519756161e+00 6.022283505619343558e-01 0.000000000000000000e+00
Cu 2.838008010638298995e+00 6.934821461397128184e-01 0.000000000000000000e+00
Cu 2.828266021091382587e+00 7.848856712949412451e-01 0.000000000000000000e+00
Cu 2.821258021868541022e+00 8.764215412440519160e-01 0.000000000000000000e+00
Cu 3.063256564599692755e+00 6.235395293181891091e-02 0.000000000000000000e+00
Cu 3.048798518891072007e+00 1.582097331955482633e-01 0.000000000000000000e+00
Cu 3.034661354602702588e+00 2.510063871233512711e-01 0.000000000000000000e+00
Cu 3.021031659798109281e+00 3.419301496988370048e-01 0.000000000000000000e+00
Cu 3.007706208938846437e+00 4.319159182910346506e-01 0.000000000000000000e+00
Cu 2.994664323372647985e+00 5.214971041503561056e-01 0.000000000000000000e+00
Cu 2.982180979996038150e+00 6.109417685444672452e-01 0.000000000000000000e+00
Cu 2.970802563216249137e+00 7.004936982470062468e-01 0.000000000000000000e+00
Cu 2.961296573614201399e+00 7.903854451831426875e-01 0.000000000000000000e+00
Cu 2.954568395987616558e+00 8.806507505253926560e-01 0.000000000000000000e+00
Cu 3.183649135295954391e+00 7.814932644482582014e-02 0.000000000000000000e+00
Cu 3.174189205813062742e+00 1.718271293788326548e-01 0.000000000000000000e+00
Cu 3.164452785427249282e+00 2.630693253830175826e-01 0.000000000000000000e+00
Cu 3.153899987155679874e+00 3.526575881467889917e-01 0.000000000000000000e+00
Cu 3.142459038517000369e+00 4.415857018554836255e-01 0.000000000000000000e+00
Cu 3.130549205253103651e+00 5.302514881524972301e-01 0.000000000000000000e+00
Cu 3.118631190452710644e+00 6.186231784727966865e-01 0.000000000000000000e+00
Cu 3.107210510745335608e+00 7.068391146805924619e-01 0.000000000000000000e+00
Cu 3.097240813705608886e+00 7.953858765342116666e-01 0.000000000000000000e+00
Cu 3.090075311824270976e+00 8.845898889415841904e-01 0.000000000000000000e+00
Cu 3.310369890697126394e+00 8.998563298119191534e-02 0.000000000000000000e+00
Cu 3.305622631784011389e+00 1.817309746918455704e-01 0.000000000000000000e+00
Cu 3.299931151664725615e+00 2.714043236817392790e-01 0.000000000000000000e+00
Cu 3.291731034747443996e+00 3.603423785781121880e-01 0.000000000000000000e+00
Cu 3.281457279493903645e+00 4.492510289931959666e-01 0.000000000000000000e+00
Cu 3.270307788465261822e+00 5.379231938664490453e-01 0.000000000000000000e+00
Cu 3.258896012748418780e+00 6.261619731159111524e-01 0.000000000000000000e+00
Cu 3.247197732665931369e+00 7.136014978393584451e-01 0.000000000000000000e+00
Cu 3.235881668416288104e+00 8.008783296855536138e-01 0.000000000000000000e+00
Cu 3.227089600562529803e+00 8.892481025867390310e-01 0.000000000000000000e+00
Cu 3.441372323914291265e+00 9.648580460427270966e-02 0.000000000000000000e+00
Cu 3.443295499776236390e+00 1.868510820177592124e-01 0.000000000000000000e+00
Cu 3.441307013523205782e+00 2.758398659776854500e-01 0.000000000000000000e+00
Cu 3.433777282966334443e+00 3.658964203404426185e-01 0.000000000000000000e+00
Cu 3.424178124101365128e+00 4.557737853673067274e-01 0.000000000000000000e+00
Cu 3.413487464579532116e+00 5.451876457686065658e-01 0.000000000000000000e+00
Cu 3.402322168480291786e+00 6.340529640202494654e-01 0.000000000000000000e+00
Cu 3.391044086411182157e+00 7.222958719779060122e-01 0.000000000000000000e+00
Cu 3.377422427126982818e+00 8.086583678327655678e-01 0.000000000000000000e+00
Cu 3.364097168347058187e+00 8.964209330464798509e-01 0.000000000000000000e+00
Cu 3.571125546167015052e+00 8.902428808942361438e-02 0.000000000000000000e+00
Cu 3.589499522202137083e+00 1.838463266660469442e-01 0.000000000000000000e+00
Cu 3.586454877244718453e+00 2.781968756376651530e-01 0.000000000000000000e+00
Cu 3.579644077288063109e+00 3.709223121836552339e-01 0.000000000000000000e+00
Cu 3.570247610991856391e+00 4.622287218510391371e-01 0.000000000000000000e+00
Cu 3.559785311591076251e+00 5.525610219354729624e-01 0.000000000000000000e+00
Cu 3.548853800596327268e+00 6.423211104997917920e-01 0.000000000000000000e+00
Cu 3.537037013559150012e+00 7.321273061308245511e-01 0.000000000000000000e+00
Cu 3.524532209484862566e+00 8.230494389587522663e-01 0.000000000000000000e+00
Cu 3.495025692382768501e+00 9.136693985133699236e-01 0.000000000000000000e+00
