200

Cu 0.000000000000000000e+00 2.491089609991535905e-02 0.000000000000000000e+00
Cu 0.000000000000000000e+00 1.253312455000694103e-01 0.000000000000000000e+00
Cu 0.000000000000000000e+00 2.250419078215561697e-01 0.000000000000000000e+00
Cu 0.000000000000000000e+00 3.244359839850403104e-01 0.000000000000000000e+00
Cu 0.000000000000000000e+00 4.237285932794824794e-01 0.000000000000000000e+00
Cu 0.000000000000000000e+00 5.230247297562080622e-01 0.000000000000000000e+00
Cu 0.000000000000000000e+00 6.224067547808322942e-01 0.000000000000000000e+00
Cu 0.000000000000000000e+00 7.219688105277694001e-01 0.000000000000000000e+00
Cu 0.000000000000000000e+00 8.219028823232167325e-01 0.000000000000000000e+00
Cu 0.000000000000000000e+00 9.225659207563914332e-01 0.000000000000000000e+00
Cu 1.193357536048993556e-01 2.784523734605106118e-02 0.000000000000000000e+00
Cu 1.184386549232807617e-01 1.263410498433887030e-01 0.000000000000000000e+00
Cu 1.183648305046927501e-01 2.254668494406343593e-01 0.000000000000000000e+00
Cu 1.183126047470804965e-01 3.246436792283106110e-01 0.000000000000000000e+00
Cu 1.182436069613464757e-01 4.238048323710565390e-01 0.000000000000000000e+00
Cu 1.181512606538068638e-01 5.229922904899083624e-01 0.000000000000000000e+00
Cu 1.180410594080773673e-01 6.222498217461659431e-01 0.000000000000000000e+00
Cu 1.179287370758884818e-01 7.216073676094922895e-01 0.000000000000000000e+00
Cu 1.178571784448752408e-01 8.209877572006120117e-01 0.000000000000000000e+00
Cu 1.185942465197449142e-01 9.198253655384891481e-01 0.000000000000000000e+00
Cu 2.382941530447474365e-01 2.925338770749934952e-02 0.000000000000000000e+00
Cu 2.374960140868311309e-01 1.276668976383059095e-01 0.000000000000000000e+00
Cu 2.370415567245278132e-01 2.262619752573626908e-01 0.000000000000000000e+00
Cu 2.368407145378581824e-01 3.250999741420059763e-01 0.000000000000000000e+00
Cu 2.366615210394261981e-01 4.240233512723431963e-01 0.000000000000000000e+00
Cu 2.364693069450401475e-01 5.230001152633638739e-01 0.000000000000000000e+00
Cu 2.362819941246714905e-01 6.220268283688327182e-01 0.000000000000000000e+00
Cu 2.361523711967821459e-01 7.210518317444719605e-01 0.000000000000000000e+00
Cu 2.362994715201768015e-01 8.199165862902620949e-01 0.000000000000000000e+00
Cu 2.368064879698566216e-01 9.186847029694259481e-01 0.000000000000000000e+00
Cu 3.571872784363440134e-01 3.031990096430777284e-02 0.000000000000000000e+00
Cu 3.565059853979480331e-01 1.287088197523354183e-01 0.000000000000000000e+00
Cu 3.559935290866345081e-01 2.271676000586387856e-01 0.000000000000000000e+00
Cu 3.556445149329670041e-01 3.257377373766193185e-01 0.000000000000000000e+00
Cu 3.553534415540098856e-01 4.243850016326168872e-01 0.000000000000000000e+00
Cu 3.550480262758167194e-01 5.230723117184085114e-01 0.000000000000000000e+00
Cu 3.547810622648003287e-01 6.218076388197762983e-01 0.000000000000000000e+00
Cu 3.546454400909450078e-01 7.205459948268653214e-01 0.000000000000000000e+00
Cu 3.546897124464399864e-01 8.192640780359977670e-01 0.000000000000000000e+00
Cu 3.549170812190014512e-01 9.180204766298376562e-01 0.000000000000000000e+00
Cu 4.761112756736694540e-01 3.122728409336723160e-02 0.000000000000000000e+00
Cu 4.755190253858161964e-01 1.295887347248702581e-01 0.000000000000000000e+00
Cu 4.750453621584438402e-01 2.279927360191127961e-01 0.000000000000000000e+00
Cu 4.746820126870850420e-01 3.264433192492214308e-01 0.000000000000000000e+00
Cu 4.743716957233146125e-01 4.249018579897421155e-01 0.000000000000000000e+00
Cu 4.739703819641697957e-01 5.232761356207116243e-01 0.000000000000000000e+00
Cu 4.735302581683090706e-01 6.216747994451826687e-01 0.000000000000000000e+00
Cu 4.732396649434936209e-01 7.202389705362099992e-01 0.000000000000000000e+00
Cu 4.730731743867834793e-01 8.189322143303299217e-01 0.000000000000000000e+00
Cu 4.729781817876607120e-01 9.177084848402951023e-01 0.000000000000000000e+00
Cu 5.951140037548876549e-01 3.203384997410325258e-02 0.000000000000000000e+00
Cu 5.945937910643961377e-01 1.303481698122702925e-01 0.000000000000000000e+00
Cu 5.941790512680674707e-01 2.287083498230456924e-01 0.000000000000000000e+00
Cu 5.938710535734623708e-01 3.271097920679580939e-01 0.000000000000000000e+00
Cu 5.936279912135441483e-01 4.255096244458000943e-01 0.000000000000000000e+00
Cu 5.933661564401274680e-01 5.237987676714904728e-01 0.000000000000000000e+00
Cu 5.926204184501727701e-01 6.217162576008330443e-01 0.000000000000000000e+00
Cu 5.918311421094520908e-01 7.200151298175856418e-01 0.000000000000000000e+00
Cu 5.914196001491067722e-01 8.189186903083695013e-01 0.000000000000000000e+00
Cu 5.909918742326253360e-01 9.178875115947970897e-01 0.000000000000000000e+00
Cu 7.142426492403571858e-01 3.275965865580908465e-02 0.000000000000000000e+00
Cu 7.137795037296713607e-01 1.310015574748124856e-01 0.000000000000000000e+00
Cu 7.134166836893457431e-01 2.293001039311131362e-01 0.000000000000000000e+00
Cu 7.131647607512220377e-01 3.276595066613960938e-01 0.000000000000000000e+00
Cu 7.130280262098311894e-01 4.260700021807554694e-01 0.000000000000000000e+00
Cu 7.129075720834064933e-01 5.244693726185986060e-01 0.000000000000000000e+00
Cu 7.127905249794623810e-01 6.226817888970412884e-01 0.000000000000000000e+00
Cu 7.104868694058168455e-01 7.195140142893331481e-01 0.000000000000000000e+00
Cu 7.089431716295541142e-01 8.190418918802979675e-01 0.000000000000000000e+00
Cu 7.093136094944340053e-01 9.188135574071796263e-01 0.000000000000000000e+00
Cu 8.335479320355972943e-01 3.342006527592266546e-02 0.000000000000000000e+00
Cu 8.331272540229502921e-01 1.315608223357260242e-01 0.000000000000000000e+00
Cu 8.327990073381320579e-01 2.297647017735029717e-01 0.000000000000000000e+00
Cu 8.325854751597466796e-01 3.280446388529941193e-01 0.000000000000000000e+00
Cu 8.324916164693010323e-01 4.264192037486769227e-01 0.000000000000000000e+00
Cu 8.325608816934043643e-01 5.249234520776075996e-01 0.000000000000000000e+00
Cu 8.324837356399183985e-01 6.235965039741935279e-01 0.000000000000000000e+00
Cu 8.333213234436798178e-01 7.225480913425830209e-01 0.000000000000000000e+00
Cu 8.215677328394478396e-01 8.172771901047397591e-01 0.000000000000000000e+00
Cu 8.303779947876922529e-01 9.175583806106430984e-01 0.000000000000000000e+00
Cu 9.530816634509594598e-01 3.403342962616320855e-02 0.000000000000000000e+00
Cu 9.526903004344832171e-01 1.320439042356689463e-01 0.000000000000000000e+00
Cu 9.523861972800221620e-01 2.301133499072270661e-01 0.000000000000000000e+00
Cu 9.521921891892761725e-01 3.282507328554535864e-01 0.000000000000000000e+00
Cu 9.521401841224871321e-01 4.264749004746842820e-01 0.000000000000000000e+00
Cu 9.522050282178793346e-01 5.248238944820539098e-01 0.000000000000000000e+00
Cu 9.526915051661410949e-01 6.233414660470661950e-01 0.000000000000000000e+00
Cu 9.524958644278851416e-01 7.221445155278175543e-01 0.000000000000000000e+00
Cu 9.650534371186799687e-01 8.166083675559834276e-01 0.000000000000000000e+00
Cu 9.572306623489515998e-01 9.168245505567811371e-01 0.000000000000000000e+00
Cu 1.072890976711708078e+00 3.462118316125130379e-02 0.000000000000000000e+00
Cu 1.072521124637830336e+00 1.324751530179885117e-01 0.000000000000000000e+00
Cu 1.072241802896038321e+00 2.303696443666450600e-01 0.000000000000000000e+00
Cu 1.072084006067773654e+00 3.282949415460456044e-01 0.000000000000000000e+00
Cu 1.072077203465406692e+00 4.262415677697934946e-01 0.000000000000000000e+00
Cu 1.072338214265432521e+00 5.241608531137762483e-01 0.000000000000000000e+00
Cu 1.072865076325417055e+00 6.218960720405630749e-01 0.000000000000000000e+00
Cu 1.075818563997446020e+00 7.182530028532494448e-01 0.000000000000000000e+00
Cu 1.078212157783911440e+00 8.173198406782541392e-01 0.000000000000000000e+00
Cu 1.078880981335257117e+00 9.166561878978675137e-01 0.000000000000000000e+00
Cu 1.193011735313391775e+00 3.520603130634698125e-02 0.000000000000000000e+00
Cu 1.192663030121098089e+00 1.328844385790222404e-01 0.000000000000000000e+00
Cu 1.192426203270094964e+00 2.305698220516557706e-01 0.000000000000000000e+00
Cu 1.192332538842552303e+00 3.282267177949662051e-01 0.000000000000000000e+00
Cu 1.192446828792897984e+00 4.258122449868974035e-01 0.000000000000000000e+00
Cu 1.192857324744936331e+00 5.232518163856443305e-01 0.000000000000000000e+00
Cu 1.194022483546309354e+00 6.203323806863785261e-01 0.000000000000000000e+00
Cu 1.195483004499666935e+00 7.178383003543942209e-01 0.000000000000000000e+00
Cu 1.196792128286889856e+00 8.160021709947118396e-01 0.000000000000000000e+00
Cu 1.198289033730177922e+00 9.142522050018786484e-01 0.000000000000000000e+00
Cu 1.313459982110332991e+00 3.580890592699926406e-02 0.000000000000000000e+00
Cu 1.313143370045842362e+00 1.333051472182044950e-01 0.000000000000000000e+00
Cu 1.312978086724955862e+00 2.307632635711085456e-01 0.000000000000000000e+00
Cu 1.312988293212835833e+00 3.281265752027076599e-01 0.000000000000000000e+00
Cu 1.313219556234784591e+00 4.253586101022853727e-01 0.000000000000000000e+00
Cu 1.313788637153124439e+00 5.224390766079696213e-01 0.000000000000000000e+00
Cu 1.314637414906750790e+00 6.195796866940033176e-01 0.000000000000000000e+00
Cu 1.315594216388146886e+00 7.169974453323336716e-01 0.000000000000000000e+00
Cu 1.316679505669168693e+00 8.146608847411800358e-01 0.000000000000000000e+00
Cu 1.317913563252652853e+00 9.124653005441926146e-01 0.000000000000000000e+00
Cu 1.434223984688575815e+00 3.644171961607638177e-02 0.000000000000000000e+00
Cu 1.433966143069435040e+00 1.337663176029917633e-01 0.000000000000000000e+00
Cu 1.433915711021381378e+00 2.310007824073715965e-01 0.000000000000000000e+00
Cu 1.434056329599873392e+00 3.280823221758906172e-01 0.000000000000000000e+00
Cu 1.434389707046007212e+00 4.250092536465582271e-01 0.000000000000000000e+00
Cu 1.434891026568399397e+00 5.218830786206034578e-01 0.000000000000000000e+00
Cu 1.435501924050940792e+00 6.188611626915716535e-01 0.000000000000000000e+00
Cu 1.436211628321624856e+00 7.160391531104426388e-01 0.000000000000000000e+00
Cu 1.437058035918111765e+00 8.134285014010111947e-01 0.000000000000000000e+00
Cu 1.438046764012252732e+00 9.109865282344444815e-01 0.000000000000000000e+00
Cu 1.555258419186689611e+00 3.709330563259507357e-02 0.000000000000000000e+00
Cu 1.555112313674567259e+00 1.342746098402100297e-01 0.000000000000000000e+00
Cu 1.555239934456400075e+00 2.313075778834960960e-01 0.000000000000000000e+00
Cu 1.555554371781057155e+00 3.281335319283153473e-01 0.000000000000000000e+00
Cu 1.555964002346189368e+00 4.247936935268170622e-01 0.000000000000000000e+00
Cu 1.556388458099182470e+00 5.214124668144716201e-01 0.000000000000000000e+00
Cu 1.556802757254709402e+00 6.181355587926032902e-01 0.000000000000000000e+00
Cu 1.557254182377245444e+00 7.150685939624815690e-01 0.000000000000000000e+00
Cu 1.557825437253100853e+00 8.122484967611730555e-01 0.000000000000000000e+00
Cu 1.558595258890520308e+00 9.096227343797279596e-01 0.000000000000000000e+00
Cu 1.676482941862627696e+00 3.770891161928621033e-02 0.000000000000000000e+00
Cu 1.676545076841393644e+00 1.347892935395822722e-01 0.000000000000000000e+00
Cu 1.676955094140511804e+00 2.316470760657362571e-01 0.000000000000000000e+00
Cu 1.677522659098251268e+00 3.282409579386957876e-01 0.000000000000000000e+00
Cu 1.678057499096674121e+00 4.246441847947289849e-01 0.000000000000000000e+00
Cu 1.678425806579756374e+00 5.209962484006627204e-01 0.000000000000000000e+00
Cu 1.678613582804457494e+00 6.174518456921582743e-01 0.000000000000000000e+00
Cu 1.678728799242144909e+00 7.141417918766465034e-01 0.000000000000000000e+00
Cu 1.678942867142180440e+00 8.111305448592067702e-01 0.000000000000000000e+00
Cu 1.679435625967757639e+00 9.083705706354155973e-01 0.000000000000000000e+00
Cu 1.797779634143756189e+00 3.816545365557119651e-02 0.000000000000000000e+00
Cu 1.798222462894476958e+00 1.351949374439644636e-01 0.000000000000000000e+00
Cu 1.799085398807332536e+00 2.318900798935395746e-01 0.000000000000000000e+00
Cu 1.800030954032924457e+00 3.282704789298042103e-01 0.000000000000000000e+00
Cu 1.800757145038543783e+00 4.244831850058069511e-01 0.000000000000000000e+00
Cu 1.801085204583552146e+00 5.206662500418960393e-01 0.000000000000000000e+00
Cu 1.801003788746976753e+00 6.169197351325829137e-01 0.000000000000000000e+00
Cu 1.800670455278544413e+00 7.133774306659186326e-01 0.000000000000000000e+00
Cu 1.800370378235528923e+00 8.101791938336927457e-01 0.000000000000000000e+00
Cu 1.800429740165572889e+00 9.073364254274811636e-01 0.000000000000000000e+00
Cu 1.918975311050162613e+00 3.823451273670176731e-02 0.000000000000000000e+00
Cu 1.920118740135765556e+00 1.352643417083696786e-01 0.000000000000000000e+00
Cu 1.921705071377449947e+00 2.317750541139823039e-01 0.000000000000000000e+00
Cu 1.923143545473515292e+00 3.279925551198718536e-01 0.000000000000000000e+00
Cu 1.924056682209420943e+00 4.242127493406776528e-01 0.000000000000000000e+00
Cu 1.924357131389136111e+00 5.204919372523129084e-01 0.000000000000000000e+00
Cu 1.924033892051604022e+00 6.167431417735004251e-01 0.000000000000000000e+00
Cu 1.923154213036911475e+00 7.130198052072787007e-01 0.000000000000000000e+00
Cu 1.922081095428925579e+00 8.096125587573476112e-01 0.000000000000000000e+00
Cu 1.921396031184122499e+00 9.067406327994340653e-01 0.000000000000000000e+00
Cu 2.039772121147902961e+00 3.748378669367323501e-02 0.000000000000000000e+00
Cu 2.042289308897026867e+00 1.345562967015942468e-01 0.000000000000000000e+00
Cu 2.044979294008570037e+00 2.308361741440085602e-01 0.000000000000000000e+00
Cu 2.046840975646381455e+00 3.271402320562203370e-01 0.000000000000000000e+00
Cu 2.047802973129693616e+00 4.237684973954356504e-01 0.000000000000000000e+00
Cu 2.048086331437224406e+00 5.205138484440319235e-01 0.000000000000000000e+00
Cu 2.047679975141013298e+00 6.171671087930654664e-01 0.000000000000000000e+00
Cu 2.046341883993502364e+00 7.135183324031416641e-01 0.000000000000000000e+00
Cu 2.044127401807662281e+00 8.098618494785666533e-01 0.000000000000000000e+00
Cu 2.042031993238778487e+00 9.070084885662220708e-01 0.000000000000000000e+00
Cu 2.159523549528129305e+00 3.489059946920898547e-02 0.000000000000000000e+00
Cu 2.165112582461140356e+00 1.320189394289953133e-01 0.000000000000000000e+00
Cu 2.168991136030777422e+00 2.284918337223307561e-01 0.000000000000000000e+00
Cu 2.170832105539736823e+00 3.257182812116906634e-01 0.000000000000000000e+00
Cu 2.171775353071414560e+00 4.231720951888115478e-01 0.000000000000000000e+00
Cu 2.172049208310978141e+00 5.206871169772164798e-01 0.000000000000000000e+00
Cu 2.171643547129774365e+00 6.181664912419015945e-01 0.000000000000000000e+00
Cu 2.170309229413736052e+00 7.154386570219427588e-01 0.000000000000000000e+00
Cu 2.166885743761185701e+00 8.119709324896333680e-01 0.000000000000000000e+00
Cu 2.161689818488881532e+00 9.091597469724894687e-01 0.000000000000000000e+00
Cu 2.276428312351005179e+00 2.575103177639033111e-02 0.000000000000000000e+00
Cu 2.289111685709645183e+00 1.258482602135987116e-01 0.000000000000000000e+00
Cu 2.292885653139553614e+00 2.253258063657746502e-01 0.000000000000000000e+00
Cu 2.294885151308890148e+00 3.241116077275518204e-01 0.000000000000000000e+00
Cu 2.295837863384577737e+00 4.225368795890281914e-01 0.000000000000000000e+00
Cu 2.296106144444025166e+00 5.208750205749573814e-01 0.000000000000000000e+00
Cu 2.295681534530871648e+00 6.193338679513109568e-01 0.000000000000000000e+00
Cu 2.294185055755069591e+00 7.181808852612101557e-01 0.000000000000000000e+00
Cu 2.290870709374670522e+00 8.177331527549811518e-01 0.000000000000000000e+00
Cu 2.278584814173292727e+00 9.179140593881591759e-01 0.000000000000000000e+00
