200

Cu 0.000000000000000000e+00 2.480817732271459726e-05 0.000000000000000000e+00
Cu 0.000000000000000000e+00 1.052805698448741750e-01 0.000000000000000000e+00
Cu 0.000000000000000000e+00 2.105370973586747629e-01 0.000000000000000000e+00
Cu 0.000000000000000000e+00 3.157945127346324932e-01 0.000000000000000000e+00
Cu 0.000000000000000000e+00 4.210526425322730915e-01 0.000000000000000000e+00
Cu 0.000000000000000000e+00 5.263111619079500203e-01 0.000000000000000000e+00
Cu 0.000000000000000000e+00 6.315697156669598522e-01 0.000000000000000000e+00
Cu 0.000000000000000000e+00 7.368279213486338408e-01 0.000000000000000000e+00
Cu 0.000000000000000000e+00 8.420854723676358677e-01 0.000000000000000000e+00
Cu 0.000000000000000000e+00 9.473422623824576672e-01 0.000000000000000000e+00
Cu 1.052960560964503328e-01 3.406257157772079572e-05 0.000000000000000000e+00
Cu 1.052914662973519072e-01 1.052843000183563832e-01 0.000000000000000000e+00
Cu 1.052898955149660642e-01 2.105389118931036696e-01 0.000000000000000000e+00
Cu 1.052889091236793029e-01 3.157953263181446646e-01 0.000000000000000000e+00
Cu 1.052882171675762618e-01 4.210526827188206256e-01 0.000000000000000000e+00
Cu 1.052877722619405682e-01 5.263105169458590638e-01 0.000000000000000000e+00
Cu 1.052876118473065475e-01 6.315683767855088115e-01 0.000000000000000000e+00
Cu 1.052878653813828919e-01 7.368257199035729288e-01 0.000000000000000000e+00
Cu 1.052888897978006971e-01 8.420815975144465559e-01 0.000000000000000000e+00
Cu 1.052930255568869933e-01 9.473334275578642050e-01 0.000000000000000000e+00
Cu 2.105943526866695115e-01 4.273778024571414912e-05 0.000000000000000000e+00
Cu 2.105875199563264910e-01 1.052911408567179102e-01 0.000000000000000000e+00
Cu 2.105834073715868449e-01 2.105430371307105697e-01 0.000000000000000000e+00
Cu 2.105810480444511024e-01 3.157974558802759679e-01 0.000000000000000000e+00
Cu 2.105794484559189439e-01 4.210531665055775585e-01 0.000000000000000000e+00
Cu 2.105784400312714078e-01 5.263094964380542473e-01 0.000000000000000000e+00
Cu 2.105781648654729277e-01 6.315658413840182783e-01 0.000000000000000000e+00
Cu 2.105789471331783735e-01 7.368213395441114422e-01 0.000000000000000000e+00
Cu 2.105817584316332647e-01 8.420747289218593057e-01 0.000000000000000000e+00
Cu 2.105876086363593913e-01 9.473250742096637200e-01 0.000000000000000000e+00
Cu 3.158991655370272378e-01 5.523177710347222251e-05 0.000000000000000000e+00
Cu 3.158894212136887925e-01 1.053002135713393128e-01 0.000000000000000000e+00
Cu 3.158831923121544483e-01 2.105493642695241419e-01 0.000000000000000000e+00
Cu 3.158792837532046760e-01 3.158011847450414855e-01 0.000000000000000000e+00
Cu 3.158766177798243979e-01 4.210543831561769923e-01 0.000000000000000000e+00
Cu 3.158748056437411522e-01 5.263081899223366333e-01 0.000000000000000000e+00
Cu 3.158743183631358420e-01 6.315620767658898238e-01 0.000000000000000000e+00
Cu 3.158757549038123114e-01 7.368150566717440730e-01 0.000000000000000000e+00
Cu 3.158796676094728917e-01 8.420658864213785844e-01 0.000000000000000000e+00
Cu 3.158872825969475384e-01 9.473134188347460682e-01 0.000000000000000000e+00
Cu 4.212145784609654942e-01 7.292857443911005260e-05 0.000000000000000000e+00
Cu 4.212007905220575554e-01 1.053127741801816730e-01 0.000000000000000000e+00
Cu 4.211918994837833274e-01 2.105580142902102603e-01 0.000000000000000000e+00
Cu 4.211864059080775435e-01 3.158067114622958860e-01 0.000000000000000000e+00
Cu 4.211829990831966186e-01 4.210569813806379624e-01 0.000000000000000000e+00
Cu 4.211803013464974210e-01 5.263070197475476775e-01 0.000000000000000000e+00
Cu 4.211789337783732323e-01 6.315570291648149315e-01 0.000000000000000000e+00
Cu 4.211806804063079612e-01 7.368068043262734346e-01 0.000000000000000000e+00
Cu 4.211858412314814504e-01 8.420545452502330441e-01 0.000000000000000000e+00
Cu 4.211951954952931065e-01 9.472979953891114135e-01 0.000000000000000000e+00
Cu 5.265451317486428140e-01 9.743545737091179211e-05 0.000000000000000000e+00
Cu 5.265257915448179338e-01 1.053300367625662343e-01 0.000000000000000000e+00
Cu 5.265131018059403534e-01 2.105697154944355942e-01 0.000000000000000000e+00
Cu 5.265054150519243858e-01 3.158141637110042921e-01 0.000000000000000000e+00
Cu 5.265014152491177546e-01 4.210610975817050128e-01 0.000000000000000000e+00
Cu 5.264996191618934729e-01 5.263077913116517292e-01 0.000000000000000000e+00
Cu 5.264964473962423508e-01 6.315507160248423624e-01 0.000000000000000000e+00
Cu 5.264961125524968422e-01 7.367953153477980743e-01 0.000000000000000000e+00
Cu 5.265030130344885428e-01 8.420404992986053605e-01 0.000000000000000000e+00
Cu 5.265150092391533976e-01 9.472800991401302273e-01 0.000000000000000000e+00
Cu 6.318962078912269131e-01 1.308363159347306396e-04 0.000000000000000000e+00
Cu 6.318693235174117628e-01 1.053536540880043310e-01 0.000000000000000000e+00
Cu 6.318512320107920743e-01 2.105855897981045444e-01 0.000000000000000000e+00
Cu 6.318401464528405898e-01 3.158238846621864160e-01 0.000000000000000000e+00
Cu 6.318349506452674014e-01 4.210660574754619412e-01 0.000000000000000000e+00
Cu 6.318345343750803034e-01 5.263094589321110073e-01 0.000000000000000000e+00
Cu 6.318372562792035074e-01 6.315500053418153792e-01 0.000000000000000000e+00
Cu 6.318270580521822000e-01 7.367761140063892045e-01 0.000000000000000000e+00
Cu 6.318268127640473963e-01 8.420226003106850987e-01 0.000000000000000000e+00
Cu 6.318550961406119715e-01 9.472604159972513038e-01 0.000000000000000000e+00
Cu 7.372741717804205397e-01 1.759441597722230207e-04 0.000000000000000000e+00
Cu 7.372372291999722549e-01 1.053859480863487547e-01 0.000000000000000000e+00
Cu 7.372117814028059657e-01 2.106073785814330523e-01 0.000000000000000000e+00
Cu 7.371958103843594401e-01 3.158367733269629718e-01 0.000000000000000000e+00
Cu 7.371881609845661876e-01 4.210712719417139538e-01 0.000000000000000000e+00
Cu 7.371884067221409209e-01 5.263085471908612867e-01 0.000000000000000000e+00
Cu 7.371951837930905693e-01 6.315467012157786053e-01 0.000000000000000000e+00
Cu 7.372106497567543215e-01 7.367834930328162057e-01 0.000000000000000000e+00
Cu 7.371320793248383740e-01 8.419784120406749173e-01 0.000000000000000000e+00
Cu 7.372376953456311055e-01 9.472189039466424321e-01 0.000000000000000000e+00
Cu 8.426864011283525802e-01 2.364222727130879458e-04 0.000000000000000000e+00
Cu 8.426364259676997204e-01 1.054300696707433371e-01 0.000000000000000000e+00
Cu 8.426015052819447737e-01 2.106375630296824786e-01 0.000000000000000000e+00
Cu 8.425792057600146601e-01 3.158543899278865030e-01 0.000000000000000000e+00
Cu 8.425682355865676820e-01 4.210769707741279233e-01 0.000000000000000000e+00
Cu 8.425679831483102733e-01 5.263024337909034678e-01 0.000000000000000000e+00
Cu 8.425798799130224115e-01 6.315282668444063274e-01 0.000000000000000000e+00
Cu 8.426032477471266935e-01 7.367503744644982033e-01 0.000000000000000000e+00
Cu 8.427483018631183320e-01 8.419227037348708809e-01 0.000000000000000000e+00
Cu 8.427087300113995649e-01 9.471390963174292077e-01 0.000000000000000000e+00
Cu 9.481411722126218411e-01 3.167957779324988873e-04 0.000000000000000000e+00
Cu 9.480749739435786472e-01 1.054900620366065467e-01 0.000000000000000000e+00
Cu 9.480286251885763349e-01 2.106794087225295486e-01 0.000000000000000000e+00
Cu 9.479989875904214491e-01 3.158788777107545132e-01 0.000000000000000000e+00
Cu 9.479844751687633853e-01 4.210839063823328954e-01 0.000000000000000000e+00
Cu 9.479851242282397727e-01 5.262904190608496124e-01 0.000000000000000000e+00
Cu 9.480028594391303187e-01 6.314929022357909094e-01 0.000000000000000000e+00
Cu 9.480558140646894172e-01 7.366780169590296801e-01 0.000000000000000000e+00
Cu 9.481194101844904187e-01 8.418826375299105491e-01 0.000000000000000000e+00
Cu 9.481760223329159798e-01 9.470714822789108034e-01 0.000000000000000000e+00
Cu 1.053647352163591178e+00 4.222535046251205365e-04 0.000000000000000000e+00
Cu 1.053562046739764169e+00 1.055707537453978162e-01 0.000000000000000000e+00
Cu 1.053503056386046799e+00 2.107369333887947616e-01 0.000000000000000000e+00
Cu 1.053465899711195419e+00 3.159129866626579908e-01 0.000000000000000000e+00
Cu 1.053448421141994107e+00 4.210934247875728897e-01 0.000000000000000000e+00
Cu 1.053450656788621265e+00 5.262738702803757551e-01 0.000000000000000000e+00
Cu 1.053476294907089716e+00 6.314498555454246542e-01 0.000000000000000000e+00
Cu 1.053521612250491346e+00 7.366263649598144836e-01 0.000000000000000000e+00
Cu 1.053584567319210352e+00 8.417992105668274938e-01 0.000000000000000000e+00
Cu 1.053674660256521456e+00 9.469547481513684861e-01 0.000000000000000000e+00
Cu 1.159213872225524744e+00 5.580919356337278635e-04 0.000000000000000000e+00
Cu 1.159107761827333327e+00 1.056773128217136926e-01 0.000000000000000000e+00
Cu 1.159036542936008107e+00 2.108146298000000696e-01 0.000000000000000000e+00
Cu 1.158993173647351105e+00 3.159600472501352120e-01 0.000000000000000000e+00
Cu 1.158973635593090412e+00 4.211077241906568402e-01 0.000000000000000000e+00
Cu 1.158976710127361365e+00 5.262550126420035834e-01 0.000000000000000000e+00
Cu 1.159001448214236119e+00 6.314026891219534088e-01 0.000000000000000000e+00
Cu 1.159048214692017575e+00 7.365498015280596000e-01 0.000000000000000000e+00
Cu 1.159122257162762848e+00 8.416901190185267501e-01 0.000000000000000000e+00
Cu 1.159231997281275683e+00 9.468127846199273501e-01 0.000000000000000000e+00
Cu 1.264849042787762778e+00 7.286642593089955695e-04 0.000000000000000000e+00
Cu 1.264722867887352553e+00 1.058142465008842514e-01 0.000000000000000000e+00
Cu 1.264642711801211572e+00 2.109165834182604171e-01 0.000000000000000000e+00
Cu 1.264596962053823326e+00 3.160232600169732842e-01 0.000000000000000000e+00
Cu 1.264577446326667465e+00 4.211287366527203258e-01 0.000000000000000000e+00
Cu 1.264579422746906712e+00 5.262334003516434544e-01 0.000000000000000000e+00
Cu 1.264602243046079932e+00 6.313398517034030100e-01 0.000000000000000000e+00
Cu 1.264650298813965401e+00 7.364480184982938882e-01 0.000000000000000000e+00
Cu 1.264732466035026981e+00 8.415521295475738572e-01 0.000000000000000000e+00
Cu 1.264860543336812970e+00 9.466400329585439311e-01 0.000000000000000000e+00
Cu 1.370559854712315673e+00 9.357933688216239342e-04 0.000000000000000000e+00
Cu 1.370418455853787520e+00 1.059836858472725241e-01 0.000000000000000000e+00
Cu 1.370337142975833977e+00 2.110445566972127540e-01 0.000000000000000000e+00
Cu 1.370297031996974502e+00 3.161037491206880601e-01 0.000000000000000000e+00
Cu 1.370282385829944216e+00 4.211565779334539572e-01 0.000000000000000000e+00
Cu 1.370283491670841292e+00 5.262065027314982713e-01 0.000000000000000000e+00
Cu 1.370300170032897835e+00 6.312600563156447464e-01 0.000000000000000000e+00
Cu 1.370341943647439997e+00 7.363203661544354128e-01 0.000000000000000000e+00
Cu 1.370424570758652871e+00 8.413825741580506223e-01 0.000000000000000000e+00
Cu 1.370566922103861662e+00 9.464320921126812003e-01 0.000000000000000000e+00
Cu 1.476351351750692986e+00 1.176662213865366582e-03 0.000000000000000000e+00
Cu 1.476206102703115253e+00 1.061829189556324909e-01 0.000000000000000000e+00
Cu 1.476137904712113924e+00 2.111947553750325723e-01 0.000000000000000000e+00
Cu 1.476116920680230926e+00 3.161973146380727684e-01 0.000000000000000000e+00
Cu 1.476115644213879197e+00 4.211887170816666637e-01 0.000000000000000000e+00
Cu 1.476116265728189214e+00 5.261756084867907912e-01 0.000000000000000000e+00
Cu 1.476118744226950774e+00 6.311674476671205181e-01 0.000000000000000000e+00
Cu 1.476140788716586050e+00 7.361707710857546827e-01 0.000000000000000000e+00
Cu 1.476209796798749974e+00 8.411835846957944618e-01 0.000000000000000000e+00
Cu 1.476355530931715565e+00 9.461909630727385334e-01 0.000000000000000000e+00
Cu 1.582225786429720449e+00 1.440803875898814465e-03 0.000000000000000000e+00
Cu 1.582099182428271300e+00 1.064009023001358939e-01 0.000000000000000000e+00
Cu 1.582067516751820113e+00 2.113530841533151072e-01 0.000000000000000000e+00
Cu 1.582083219857786771e+00 3.162899291715101091e-01 0.000000000000000000e+00
Cu 1.582103666139711207e+00 4.212188550407095500e-01 0.000000000000000000e+00
Cu 1.582104018043128502e+00 5.261466132135173002e-01 0.000000000000000000e+00
Cu 1.582084258105713737e+00 6.310758026940328502e-01 0.000000000000000000e+00
Cu 1.582069169633577577e+00 7.360131404198022587e-01 0.000000000000000000e+00
Cu 1.582101298131628031e+00 8.409659772723101501e-01 0.000000000000000000e+00
Cu 1.582228135842342009e+00 9.459268089730756834e-01 0.000000000000000000e+00
Cu 1.688180620991329706e+00 1.704451853744016728e-03 0.000000000000000000e+00
Cu 1.688116866634789437e+00 1.066116910204741863e-01 0.000000000000000000e+00
Cu 1.688157455882159486e+00 2.114881861926151685e-01 0.000000000000000000e+00
Cu 1.688223035304380337e+00 3.163543697425528767e-01 0.000000000000000000e+00
Cu 1.688262555962111833e+00 4.212365011578707019e-01 0.000000000000000000e+00
Cu 1.688262752234006792e+00 5.261298885204050979e-01 0.000000000000000000e+00
Cu 1.688223611850221184e+00 6.310121813541574864e-01 0.000000000000000000e+00
Cu 1.688158368283154687e+00 7.358786707982620801e-01 0.000000000000000000e+00
Cu 1.688118023329037598e+00 8.407555759687462826e-01 0.000000000000000000e+00
Cu 1.688181870048897526e+00 9.456632652363122782e-01 0.000000000000000000e+00
Cu 1.794203176409364664e+00 1.914304262635722984e-03 0.000000000000000000e+00
Cu 1.794295171392121357e+00 1.067584810136401885e-01 0.000000000000000000e+00
Cu 1.794451672759802996e+00 2.115416726614215981e-01 0.000000000000000000e+00
Cu 1.794551693486585053e+00 3.163595584120338922e-01 0.000000000000000000e+00
Cu 1.794589170713110082e+00 4.212353257250435190e-01 0.000000000000000000e+00
Cu 1.794589278950161626e+00 5.261317350211425214e-01 0.000000000000000000e+00
Cu 1.794552009685871363e+00 6.310076015484367140e-01 0.000000000000000000e+00
Cu 1.794452168098064959e+00 7.358256734485977280e-01 0.000000000000000000e+00
Cu 1.794295787959281352e+00 8.406091107954709596e-01 0.000000000000000000e+00
Cu 1.794203816223719050e+00 9.454535469502872713e-01 0.000000000000000000e+00
Cu 1.900262187631007071e+00 1.938335329194673922e-03 0.000000000000000000e+00
Cu 1.900713360382819683e+00 1.067033390597288967e-01 0.000000000000000000e+00
Cu 1.900971889182710095e+00 2.114472775294723716e-01 0.000000000000000000e+00
Cu 1.901049946484119513e+00 3.163081086219472482e-01 0.000000000000000000e+00
Cu 1.901070981236910651e+00 4.212204868531674307e-01 0.000000000000000000e+00
Cu 1.901071042810726253e+00 5.261469969581232808e-01 0.000000000000000000e+00
Cu 1.901050125980275007e+00 6.310594392389612395e-01 0.000000000000000000e+00
Cu 1.900972168605745694e+00 7.359203882526258456e-01 0.000000000000000000e+00
Cu 1.900713702863704668e+00 8.406644759219569218e-01 0.000000000000000000e+00
Cu 1.900262531168998903e+00 9.454296216610058590e-01 0.000000000000000000e+00
Cu 2.006306865299593678e+00 1.214591104898311716e-03 0.000000000000000000e+00
Cu 2.007397216975665533e+00 1.062530201504902627e-01 0.000000000000000000e+00
Cu 2.007630183944320024e+00 2.112640635758121777e-01 0.000000000000000000e+00
Cu 2.007696137380682533e+00 3.162426164093488090e-01 0.000000000000000000e+00
Cu 2.007709478239229739e+00 4.212047012596322193e-01 0.000000000000000000e+00
Cu 2.007709516657715021e+00 5.261629625643023944e-01 0.000000000000000000e+00
Cu 2.007696249951498757e+00 6.311250974571025463e-01 0.000000000000000000e+00
Cu 2.007630361093700966e+00 7.361037420613878446e-01 0.000000000000000000e+00
Cu 2.007397438143554425e+00 8.411148986947071249e-01 0.000000000000000000e+00
Cu 2.006307095024772558e+00 9.461534224159273698e-01 0.000000000000000000e+00
