200

Cu 0.000000000000000000e+00 1.121378687603954635e-02 0.000000000000000000e+00
Cu 0.000000000000000000e+00 1.162261559087280072e-01 0.000000000000000000e+00
Cu 0.000000000000000000e+00 2.212788048306446320e-01 0.000000000000000000e+00
Cu 0.000000000000000000e+00 3.263963024385518330e-01 0.000000000000000000e+00
Cu 0.000000000000000000e+00 4.315850752809672897e-01 0.000000000000000000e+00
Cu 0.000000000000000000e+00 5.368422531749806881e-01 0.000000000000000000e+00
Cu 0.000000000000000000e+00 6.421631702029829691e-01 0.000000000000000000e+00
Cu 0.000000000000000000e+00 7.475437685264108012e-01 0.000000000000000000e+00
Cu 0.000000000000000000e+00 8.529776646185933675e-01 0.000000000000000000e+00
Cu 0.000000000000000000e+00 9.584498538022622194e-01 0.000000000000000000e+00
Cu 1.061887977430335250e-01 1.149401594768727219e-02 0.000000000000000000e+00
Cu 1.059400632153744970e-01 1.163681309734935360e-01 0.000000000000000000e+00
Cu 1.057556868237378017e-01 2.213876493199745110e-01 0.000000000000000000e+00
Cu 1.055795848134315762e-01 3.265009326080286489e-01 0.000000000000000000e+00
Cu 1.054083882906448888e-01 4.316933964027487303e-01 0.000000000000000000e+00
Cu 1.052404365499355759e-01 5.369568803332755991e-01 0.000000000000000000e+00
Cu 1.050729684784101059e-01 6.422846157629061858e-01 0.000000000000000000e+00
Cu 1.049010781351088495e-01 7.476739440701974937e-01 0.000000000000000000e+00
Cu 1.047159042188981481e-01 8.531354805743194269e-01 0.000000000000000000e+00
Cu 1.044595614757690971e-01 9.587243981266887483e-01 0.000000000000000000e+00
Cu 2.123447353671530091e-01 1.185717185198744035e-02 0.000000000000000000e+00
Cu 2.119140550366348796e-01 1.167397494907369271e-01 0.000000000000000000e+00
Cu 2.115167213451204231e-01 2.217337866456932371e-01 0.000000000000000000e+00
Cu 2.111521186490664947e-01 3.268413977364272860e-01 0.000000000000000000e+00
Cu 2.108048378167652614e-01 4.320410202264266530e-01 0.000000000000000000e+00
Cu 2.104688464040116724e-01 5.373176784895977720e-01 0.000000000000000000e+00
Cu 2.101363759328854497e-01 6.426610566194090879e-01 0.000000000000000000e+00
Cu 2.097933381854973078e-01 7.480686586379061698e-01 0.000000000000000000e+00
Cu 2.094111993567823737e-01 8.535535439159170901e-01 0.000000000000000000e+00
Cu 2.089709935622152404e-01 9.591218043667715243e-01 0.000000000000000000e+00
Cu 3.184699083979496415e-01 1.239705636376862465e-02 0.000000000000000000e+00
Cu 3.178558170369085167e-01 1.172921338003400232e-01 0.000000000000000000e+00
Cu 3.172651679225556576e-01 2.222956251087319368e-01 0.000000000000000000e+00
Cu 3.167065579442939205e-01 3.274071725813258449e-01 0.000000000000000000e+00
Cu 3.161793421232982904e-01 4.326177586055493518e-01 0.000000000000000000e+00
Cu 3.156765133982195604e-01 5.379112642459693561e-01 0.000000000000000000e+00
Cu 3.151867020704595679e-01 6.432736402003271792e-01 0.000000000000000000e+00
Cu 3.146882035851198411e-01 7.486958072368622430e-01 0.000000000000000000e+00
Cu 3.141534853457320087e-01 8.541725590302751137e-01 0.000000000000000000e+00
Cu 3.135563822351051799e-01 9.597088260871058374e-01 0.000000000000000000e+00
Cu 4.245601960338032943e-01 1.312020067424000958e-02 0.000000000000000000e+00
Cu 4.237567541320661491e-01 1.180314703366821399e-01 0.000000000000000000e+00
Cu 4.229745712561713833e-01 2.230525304259132202e-01 0.000000000000000000e+00
Cu 4.222273764871392610e-01 3.281808499235279730e-01 0.000000000000000000e+00
Cu 4.215221061621879373e-01 4.334062819555153934e-01 0.000000000000000000e+00
Cu 4.208582936589828072e-01 5.387142829451835313e-01 0.000000000000000000e+00
Cu 4.202266608202100406e-01 6.440883078834414022e-01 0.000000000000000000e+00
Cu 4.196059689438529916e-01 7.495113664723076496e-01 0.000000000000000000e+00
Cu 4.189607670570817399e-01 8.549688027342244867e-01 0.000000000000000000e+00
Cu 4.182467078562545071e-01 9.604590641621678637e-01 0.000000000000000000e+00
Cu 5.306131044839159649e-01 1.403039596176905088e-02 0.000000000000000000e+00
Cu 5.296117594902274295e-01 1.189569406035566462e-01 0.000000000000000000e+00
Cu 5.286328712454284595e-01 2.239972386138049942e-01 0.000000000000000000e+00
Cu 5.276997011299674467e-01 3.291456437754772812e-01 0.000000000000000000e+00
Cu 5.268258597360301332e-01 4.343859566800633010e-01 0.000000000000000000e+00
Cu 5.260153556573591294e-01 5.396972751938448054e-01 0.000000000000000000e+00
Cu 5.252647255962467066e-01 6.450625072037291519e-01 0.000000000000000000e+00
Cu 5.245560265304058944e-01 7.504658754498202411e-01 0.000000000000000000e+00
Cu 5.238482200659804189e-01 8.558919315220107071e-01 0.000000000000000000e+00
Cu 5.230758198750307120e-01 9.613240178423589910e-01 0.000000000000000000e+00
Cu 6.366318055051856106e-01 1.513531392156737022e-02 0.000000000000000000e+00
Cu 6.354190818008258468e-01 1.200719364660056132e-01 0.000000000000000000e+00
Cu 6.342325805411370698e-01 2.251249290364588374e-01 0.000000000000000000e+00
Cu 6.331136179502665495e-01 3.302885565151098546e-01 0.000000000000000000e+00
Cu 6.320861330206222206e-01 4.355356259822064091e-01 0.000000000000000000e+00
Cu 6.311582755653190047e-01 5.408321689005756161e-01 0.000000000000000000e+00
Cu 6.303195527013313315e-01 6.461499625683064796e-01 0.000000000000000000e+00
Cu 6.295530017354069585e-01 7.514949703385844781e-01 0.000000000000000000e+00
Cu 6.288247606285168878e-01 8.568625553338147238e-01 0.000000000000000000e+00
Cu 6.280727146592524068e-01 9.622295352922368705e-01 0.000000000000000000e+00
Cu 7.426209624900089734e-01 1.645198141533670347e-02 0.000000000000000000e+00
Cu 7.411829899093946850e-01 1.213909992325488546e-01 0.000000000000000000e+00
Cu 7.397732749753487269e-01 2.264391776332649597e-01 0.000000000000000000e+00
Cu 7.384604818335839260e-01 3.315972725584769853e-01 0.000000000000000000e+00
Cu 7.373012783929331349e-01 4.368347891650291581e-01 0.000000000000000000e+00
Cu 7.363031402978800211e-01 5.420828518322559075e-01 0.000000000000000000e+00
Cu 7.354381544894954548e-01 6.473123527863038351e-01 0.000000000000000000e+00
Cu 7.346253677963238138e-01 7.525249048940111374e-01 0.000000000000000000e+00
Cu 7.339031628183240175e-01 8.577910223320538430e-01 0.000000000000000000e+00
Cu 7.332570189589809884e-01 9.630255573229838939e-01 0.000000000000000000e+00
Cu 8.485776296811426977e-01 1.799757490581406841e-02 0.000000000000000000e+00
Cu 8.469079038572915330e-01 1.229425417910104540e-01 0.000000000000000000e+00
Cu 8.452689588398742959e-01 2.279668340689322004e-01 0.000000000000000000e+00
Cu 8.437426963196077434e-01 3.330715640319201198e-01 0.000000000000000000e+00
Cu 8.424609983609758768e-01 4.382474333686453005e-01 0.000000000000000000e+00
Cu 8.414986376755949626e-01 5.433997342230456606e-01 0.000000000000000000e+00
Cu 8.406569898781173222e-01 6.484587665351313479e-01 0.000000000000000000e+00
Cu 8.398213358681971830e-01 7.536127917786010766e-01 0.000000000000000000e+00
Cu 3.554885529904064256e+00 6.814937520260601067e-01 0.000000000000000000e+00
Cu 3.532086315932830178e+00 7.837022936505817494e-01 0.000000000000000000e+00
Cu 9.544929463685543070e-01 1.979543133114916587e-02 0.000000000000000000e+00
Cu 9.525750067000082755e-01 1.247459437874016974e-01 0.000000000000000000e+00
Cu 9.507327249828199101e-01 2.297748223276878665e-01 0.000000000000000000e+00
Cu 9.490030235780972934e-01 3.347714785300770490e-01 0.000000000000000000e+00
Cu 9.475815222643941826e-01 4.397384290775339100e-01 0.000000000000000000e+00
Cu 9.468603851263911464e-01 5.445426875988146342e-01 0.000000000000000000e+00
Cu 9.459853672230944532e-01 6.495927677676845979e-01 0.000000000000000000e+00
Cu 3.687252251955618121e+00 6.046260120077523448e-01 0.000000000000000000e+00
Cu 3.662692432849762980e+00 7.050233546299057297e-01 0.000000000000000000e+00
Cu 3.642372623837319967e+00 8.041899422409749532e-01 0.000000000000000000e+00
Cu 1.060340412434918056e+00 2.185875842677011127e-02 0.000000000000000000e+00
Cu 1.058169041299111823e+00 1.268457238007869581e-01 0.000000000000000000e+00
Cu 1.056076557730925680e+00 2.318591866475429031e-01 0.000000000000000000e+00
Cu 1.054262848905468619e+00 3.369559854668292553e-01 0.000000000000000000e+00
Cu 3.876320948838900105e+00 3.286114339204928014e-01 0.000000000000000000e+00
Cu 3.841746229102231958e+00 4.269600390005796609e-01 0.000000000000000000e+00
Cu 3.822406755687930868e+00 5.289391790765551882e-01 0.000000000000000000e+00
Cu 3.797064502019042553e+00 6.278279723191066974e-01 0.000000000000000000e+00
Cu 3.776426990818925411e+00 7.256791920685717878e-01 0.000000000000000000e+00
Cu 3.759202221341253480e+00 8.225190258715964209e-01 0.000000000000000000e+00
Cu 1.166105025538813234e+00 2.424859759417874114e-02 0.000000000000000000e+00
Cu 1.163610084316514026e+00 1.292453271634076972e-01 0.000000000000000000e+00
Cu 1.161345778489861758e+00 2.343656740810379224e-01 0.000000000000000000e+00
Cu 4.012747050098449897e+00 2.580637546840013896e-01 0.000000000000000000e+00
Cu 3.981924717521965640e+00 3.570486266316385549e-01 0.000000000000000000e+00
Cu 3.959778794144713121e+00 4.548200121264066587e-01 0.000000000000000000e+00
Cu 3.933519503497248770e+00 5.503262191615302390e-01 0.000000000000000000e+00
Cu 3.913509503861400951e+00 6.476188781597854716e-01 0.000000000000000000e+00
Cu 3.895860631045939382e+00 7.431271226727864665e-01 0.000000000000000000e+00
Cu 3.881565370599477482e+00 8.378073712672571283e-01 0.000000000000000000e+00
Cu 1.271713455115335734e+00 2.695949271170343733e-02 0.000000000000000000e+00
Cu 1.268931813887383520e+00 1.320834658919735616e-01 0.000000000000000000e+00
Cu 4.152514811770539715e+00 1.893865766955610819e-01 0.000000000000000000e+00
Cu 4.121665451851286299e+00 2.864228201105222804e-01 0.000000000000000000e+00
Cu 4.096601502723106414e+00 3.818523611305043586e-01 0.000000000000000000e+00
Cu 4.074306781909222686e+00 4.768030318836449788e-01 0.000000000000000000e+00
Cu 4.053667318337517145e+00 5.711157851659207640e-01 0.000000000000000000e+00
Cu 4.035491544741688585e+00 6.642514334446930624e-01 0.000000000000000000e+00
Cu 4.020608567298215696e+00 7.575061389011928936e-01 0.000000000000000000e+00
Cu 4.008642048721282158e+00 8.501865695693660019e-01 0.000000000000000000e+00
Cu 1.377184873445779667e+00 3.023426083600071201e-02 0.000000000000000000e+00
Cu 4.292358552630432200e+00 1.221269318867670567e-01 0.000000000000000000e+00
Cu 4.263185653223297678e+00 2.181669708350968684e-01 0.000000000000000000e+00
Cu 4.238635164153776280e+00 3.118911440182831063e-01 0.000000000000000000e+00
Cu 4.216886444735141737e+00 4.041527041034969070e-01 0.000000000000000000e+00
Cu 4.197150248459837307e+00 4.959155135411580928e-01 0.000000000000000000e+00
Cu 4.179219769567862564e+00 5.872903059673214576e-01 0.000000000000000000e+00
Cu 4.163339370806163231e+00 6.783222038130449771e-01 0.000000000000000000e+00
Cu 4.150025162194037165e+00 7.692069528648002308e-01 0.000000000000000000e+00
Cu 4.139852044144880949e+00 8.600618213562110093e-01 0.000000000000000000e+00
Cu 4.428802516799079214e+00 5.374229149603756278e-02 0.000000000000000000e+00
Cu 4.404426643800310792e+00 1.498607675311622867e-01 0.000000000000000000e+00
Cu 4.382470817997194956e+00 2.425299871566947985e-01 0.000000000000000000e+00
Cu 4.362516079430429627e+00 3.331889810548664954e-01 0.000000000000000000e+00
Cu 4.343977171257904502e+00 4.227874036203360109e-01 0.000000000000000000e+00
Cu 4.326543574472482945e+00 5.118518277065247091e-01 0.000000000000000000e+00
Cu 4.310372053657208546e+00 6.007456807311114533e-01 0.000000000000000000e+00
Cu 4.295882191541612549e+00 6.896638199535556346e-01 0.000000000000000000e+00
Cu 4.283724469045996130e+00 7.787324406859104098e-01 0.000000000000000000e+00
Cu 4.274652988611422622e+00 8.679413194807084064e-01 0.000000000000000000e+00
Cu 4.541843946660204523e+00 7.665289267419136965e-02 0.000000000000000000e+00
Cu 4.525436128324250795e+00 1.708563708049188612e-01 0.000000000000000000e+00
Cu 4.509095021325854269e+00 2.615412291311842163e-01 0.000000000000000000e+00
Cu 4.493094235500079137e+00 3.501632287081417605e-01 0.000000000000000000e+00
Cu 4.477259141542449861e+00 4.377683105951538645e-01 0.000000000000000000e+00
Cu 4.461644315731716048e+00 5.249424772266594319e-01 0.000000000000000000e+00
Cu 4.446610801422840709e+00 6.119695863558949345e-01 0.000000000000000000e+00
Cu 4.432805737325060669e+00 6.991031307803089456e-01 0.000000000000000000e+00
Cu 4.421112072665522419e+00 7.865817089820076324e-01 0.000000000000000000e+00
Cu 4.412569940234000399e+00 8.744322636954726669e-01 0.000000000000000000e+00
Cu 4.664424290861909128e+00 9.479164277714792475e-02 0.000000000000000000e+00
Cu 4.653727385111534609e+00 1.866308508638446495e-01 0.000000000000000000e+00
Cu 4.642340855746948769e+00 2.757440786762463958e-01 0.000000000000000000e+00
Cu 4.629784879311639401e+00 3.630171483516258513e-01 0.000000000000000000e+00
Cu 4.616092171680239886e+00 4.495468063791376312e-01 0.000000000000000000e+00
Cu 4.601806176618481459e+00 5.357822143653572233e-01 0.000000000000000000e+00
Cu 4.587502338193247375e+00 6.217007703168385691e-01 0.000000000000000000e+00
Cu 4.573802955603023968e+00 7.074546029354847887e-01 0.000000000000000000e+00
Cu 4.561800679110245227e+00 7.935425038940393527e-01 0.000000000000000000e+00
Cu 4.553023989247282799e+00 8.802718427275266766e-01 0.000000000000000000e+00
Cu 4.794448635504397593e+00 1.083796365424235936e-01 0.000000000000000000e+00
Cu 4.788966857575700509e+00 1.981141449842444002e-01 0.000000000000000000e+00
Cu 4.782066249798874402e+00 2.856321994148990351e-01 0.000000000000000000e+00
Cu 4.772166934375973391e+00 3.722845784906665956e-01 0.000000000000000000e+00
Cu 4.759807046207645165e+00 4.588390208671090376e-01 0.000000000000000000e+00
Cu 4.746403351776913304e+00 5.451024521409610912e-01 0.000000000000000000e+00
Cu 4.732719488231465377e+00 6.309078581806256691e-01 0.000000000000000000e+00
Cu 4.718786025560569364e+00 7.158520523158919957e-01 0.000000000000000000e+00
Cu 4.705493031837982620e+00 8.006420239250622295e-01 0.000000000000000000e+00
Cu 4.695228125009487385e+00 8.865199253698028414e-01 0.000000000000000000e+00
Cu 4.929608974797861976e+00 1.160021993943773921e-01 0.000000000000000000e+00
Cu 4.931245377233900662e+00 2.042902247102623692e-01 0.000000000000000000e+00
Cu 4.928581080688407390e+00 2.910988012778698564e-01 0.000000000000000000e+00
Cu 4.919425565718445803e+00 3.790000481404376953e-01 0.000000000000000000e+00
Cu 4.907863094368068779e+00 4.666261595424657238e-01 0.000000000000000000e+00
Cu 4.894983002355318469e+00 5.536966185566034593e-01 0.000000000000000000e+00
Cu 4.881544948740470957e+00 6.401423737436587880e-01 0.000000000000000000e+00
Cu 4.868147983417530966e+00 7.259640927739771099e-01 0.000000000000000000e+00
Cu 4.852264761581784214e+00 8.096796622258107812e-01 0.000000000000000000e+00
Cu 4.837486393691835751e+00 8.950135534310540431e-01 0.000000000000000000e+00
Cu 5.063276310476661379e+00 1.085619803294878838e-01 0.000000000000000000e+00
Cu 5.083642912498770094e+00 2.015143852820763248e-01 0.000000000000000000e+00
Cu 5.079506404287672083e+00 2.941364931262082649e-01 0.000000000000000000e+00
Cu 5.071235327739715082e+00 3.849473380792823862e-01 0.000000000000000000e+00
Cu 5.059856628298649461e+00 4.741246338967851637e-01 0.000000000000000000e+00
Cu 5.047211161699794779e+00 5.621789789962166051e-01 0.000000000000000000e+00
Cu 5.034054195587725822e+00 6.495503173301219180e-01 0.000000000000000000e+00
Cu 5.019925250803540351e+00 7.368992911428400294e-01 0.000000000000000000e+00
Cu 5.005583367992221255e+00 8.255480549057527817e-01 0.000000000000000000e+00
Cu 4.972502715344916169e+00 9.134247110338548081e-01 0.000000000000000000e+00
