200

Cu 0.000000000000000000e+00 2.182059751665015729e-02 0.000000000000000000e+00
Cu 0.000000000000000000e+00 1.228270360144078921e-01 0.000000000000000000e+00
Cu 0.000000000000000000e+00 2.232120359538579124e-01 0.000000000000000000e+00
Cu 0.000000000000000000e+00 3.233221729371972275e-01 0.000000000000000000e+00
Cu 0.000000000000000000e+00 4.233462126673734338e-01 0.000000000000000000e+00
Cu 0.000000000000000000e+00 5.233750800934374725e-01 0.000000000000000000e+00
Cu 0.000000000000000000e+00 6.234795082422929235e-01 0.000000000000000000e+00
Cu 0.000000000000000000e+00 7.237409254979978446e-01 0.000000000000000000e+00
Cu 0.000000000000000000e+00 8.243276039910559794e-01 0.000000000000000000e+00
Cu 0.000000000000000000e+00 9.255539515185376986e-01 0.000000000000000000e+00
Cu 1.177098205794276514e-01 2.444280405343380452e-02 0.000000000000000000e+00
Cu 1.168895332121696884e-01 1.237288362865488905e-01 0.000000000000000000e+00
Cu 1.168147437203183037e-01 2.235923396436828858e-01 0.000000000000000000e+00
Cu 1.167635613960258389e-01 3.235086408503347055e-01 0.000000000000000000e+00
Cu 1.166990818473644526e-01 4.234151709202041980e-01 0.000000000000000000e+00
Cu 1.166155915040046481e-01 5.233468840484127860e-01 0.000000000000000000e+00
Cu 1.165177564809690702e-01 6.233402240795737903e-01 0.000000000000000000e+00
Cu 1.164191774081592828e-01 7.234194096308870225e-01 0.000000000000000000e+00
Cu 1.163604784813166149e-01 8.235131010666810747e-01 0.000000000000000000e+00
Cu 1.170313013424518767e-01 9.231108370617294723e-01 0.000000000000000000e+00
Cu 2.350818425899009467e-01 2.570799924115248561e-02 0.000000000000000000e+00
Cu 2.343420150914141964e-01 1.249264904726956338e-01 0.000000000000000000e+00
Cu 2.339168796063463007e-01 2.243118234057361049e-01 0.000000000000000000e+00
Cu 2.337256432137238271e-01 3.239222144903053380e-01 0.000000000000000000e+00
Cu 2.335589183693349002e-01 4.236138953533594154e-01 0.000000000000000000e+00
Cu 2.333848949116609228e-01 5.233556333730491339e-01 0.000000000000000000e+00
Cu 2.332194949620353674e-01 6.231413825444851451e-01 0.000000000000000000e+00
Cu 2.331100373780311541e-01 7.229213164596203223e-01 0.000000000000000000e+00
Cu 2.332529417543066641e-01 8.225509018335395162e-01 0.000000000000000000e+00
Cu 2.337220531199435680e-01 9.220913330082745052e-01 0.000000000000000000e+00
Cu 3.523981115609712278e-01 2.668327424802808753e-02 0.000000000000000000e+00
Cu 3.517577372202653208e-01 1.258769982623783035e-01 0.000000000000000000e+00
Cu 3.512749621183823279e-01 2.251387033233146762e-01 0.000000000000000000e+00
Cu 3.509450918369095285e-01 3.245046701582472992e-01 0.000000000000000000e+00
Cu 3.506736297873305208e-01 4.239438845436619419e-01 0.000000000000000000e+00
Cu 3.503962941207590664e-01 5.234219876750887401e-01 0.000000000000000000e+00
Cu 3.501615115514867260e-01 6.229434477379048873e-01 0.000000000000000000e+00
Cu 3.500517335988191925e-01 7.224638303195195510e-01 0.000000000000000000e+00
Cu 3.501066690302122586e-01 8.219600394619465122e-01 0.000000000000000000e+00
Cu 3.503266747408815829e-01 9.214857432168993556e-01 0.000000000000000000e+00
Cu 4.697510344455148035e-01 2.752660955622374464e-02 0.000000000000000000e+00
Cu 4.691849137577147610e-01 1.266906981049379100e-01 0.000000000000000000e+00
Cu 4.687325381546984526e-01 2.258989094290768940e-01 0.000000000000000000e+00
Cu 4.683865925270300212e-01 3.251532047244483081e-01 0.000000000000000000e+00
Cu 4.680947662797166897e-01 4.244167263631865583e-01 0.000000000000000000e+00
Cu 4.677288830181844936e-01 5.236060125328881876e-01 0.000000000000000000e+00
Cu 4.673385987362118632e-01 6.228198749055402494e-01 0.000000000000000000e+00
Cu 4.670940823842612000e-01 7.221814088027069811e-01 0.000000000000000000e+00
Cu 4.669663308197772866e-01 8.216527441524478226e-01 0.000000000000000000e+00
Cu 4.668997217178108006e-01 9.211891875465311186e-01 0.000000000000000000e+00
Cu 5.871880488892154970e-01 2.828990571629105832e-02 0.000000000000000000e+00
Cu 5.866803558954091224e-01 1.274039940528483295e-01 0.000000000000000000e+00
Cu 5.862762818487747829e-01 2.265659252067292184e-01 0.000000000000000000e+00
Cu 5.859771636380650683e-01 3.257696827456679212e-01 0.000000000000000000e+00
Cu 5.857461284475750096e-01 4.249745361386049192e-01 0.000000000000000000e+00
Cu 5.855031361438742810e-01 5.240782321850691039e-01 0.000000000000000000e+00
Cu 5.848369330056186755e-01 6.228485972268308357e-01 0.000000000000000000e+00
Cu 5.841435016451875795e-01 7.219680485406174686e-01 0.000000000000000000e+00
Cu 5.838053738917698965e-01 8.216259928637393850e-01 0.000000000000000000e+00
Cu 5.834525956295424365e-01 9.213301935354410999e-01 0.000000000000000000e+00
Cu 7.047560964828677443e-01 2.899133366569898312e-02 0.000000000000000000e+00
Cu 7.042926780417919641e-01 1.280302286829648473e-01 0.000000000000000000e+00
Cu 7.039296937096682916e-01 2.271270617276135162e-01 0.000000000000000000e+00
Cu 7.036776823562573835e-01 3.262838609652344846e-01 0.000000000000000000e+00
Cu 7.035402076156185291e-01 4.254897919958012809e-01 0.000000000000000000e+00
Cu 7.034318441757002605e-01 5.246869499266968440e-01 0.000000000000000000e+00
Cu 7.033187949138544059e-01 6.237081925381063874e-01 0.000000000000000000e+00
Cu 7.012765418193936950e-01 7.214953016966573207e-01 0.000000000000000000e+00
Cu 6.999004983616549103e-01 8.217146228580491929e-01 0.000000000000000000e+00
Cu 7.003262270561888547e-01 9.221203256716108410e-01 0.000000000000000000e+00
Cu 8.225051748139403651e-01 2.964552287957444854e-02 0.000000000000000000e+00
Cu 8.220721318550766599e-01 1.285811248283245389e-01 0.000000000000000000e+00
Cu 8.217340061895943570e-01 2.275806426137786942e-01 0.000000000000000000e+00
Cu 8.215115282114274775e-01 3.266538494846880636e-01 0.000000000000000000e+00
Cu 8.214110846335552774e-01 4.258157595871119305e-01 0.000000000000000000e+00
Cu 8.214675164979280408e-01 5.250960471607241109e-01 0.000000000000000000e+00
Cu 8.214218714793519727e-01 6.245289534617162186e-01 0.000000000000000000e+00
Cu 8.221280135674212675e-01 7.241948904183734825e-01 0.000000000000000000e+00
Cu 8.117066530133545399e-01 8.200856476203488565e-01 0.000000000000000000e+00
Cu 8.196540440465350796e-01 9.209247104726711042e-01 0.000000000000000000e+00
Cu 9.404858786795485814e-01 3.026993568572483584e-02 0.000000000000000000e+00
Cu 9.400708832083334299e-01 1.290739890378074517e-01 0.000000000000000000e+00
Cu 9.397476894823668658e-01 2.279381542735528232e-01 0.000000000000000000e+00
Cu 9.395379094829690025e-01 3.268685067970386604e-01 0.000000000000000000e+00
Cu 9.394699206695897864e-01 4.258803276598761012e-01 0.000000000000000000e+00
Cu 9.395262923434469782e-01 5.250060238444065330e-01 0.000000000000000000e+00
Cu 9.399614391659388835e-01 6.242841651163132388e-01 0.000000000000000000e+00
Cu 9.398822334601064643e-01 7.237999932294856276e-01 0.000000000000000000e+00
Cu 9.511043207602696281e-01 8.194369565573732528e-01 0.000000000000000000e+00
Cu 9.441376558124784379e-01 9.202000362015184676e-01 0.000000000000000000e+00
Cu 1.058744131916047992e+00 3.088450330780019223e-02 0.000000000000000000e+00
Cu 1.058340089633982739e+00 1.295315559267284922e-01 0.000000000000000000e+00
Cu 1.058032778209487157e+00 2.282216301119145974e-01 0.000000000000000000e+00
Cu 1.057850543530983956e+00 3.269438046661159447e-01 0.000000000000000000e+00
Cu 1.057821824682491307e+00 4.256876082189517407e-01 0.000000000000000000e+00
Cu 1.058049082542092512e+00 5.244076377010916667e-01 0.000000000000000000e+00
Cu 1.058552884426265051e+00 6.229539924102465154e-01 0.000000000000000000e+00
Cu 1.061230052468287166e+00 7.202685001944387766e-01 0.000000000000000000e+00
Cu 1.063445974990745668e+00 8.200291429612076577e-01 0.000000000000000000e+00
Cu 1.064053746251249155e+00 9.199997897501520638e-01 0.000000000000000000e+00
Cu 1.177315096856839993e+00 3.150970200697484486e-02 0.000000000000000000e+00
Cu 1.176922501238800267e+00 1.299809402257038893e-01 0.000000000000000000e+00
Cu 1.176648103704820425e+00 2.284637150466215516e-01 0.000000000000000000e+00
Cu 1.176520768682828511e+00 3.269234194766189039e-01 0.000000000000000000e+00
Cu 1.176599415101906132e+00 4.253195538517782204e-01 0.000000000000000000e+00
Cu 1.176969234830979927e+00 5.235818384839800999e-01 0.000000000000000000e+00
Cu 1.178035194925671769e+00 6.215225990222177366e-01 0.000000000000000000e+00
Cu 1.179382804321273515e+00 7.198535812508408682e-01 0.000000000000000000e+00
Cu 1.180604480574970694e+00 8.187729822545639635e-01 0.000000000000000000e+00
Cu 1.182021020713447834e+00 9.177575152132404490e-01 0.000000000000000000e+00
Cu 1.296215302518101797e+00 3.216360849518372367e-02 0.000000000000000000e+00
Cu 1.295845944324752530e+00 1.304517992244767777e-01 0.000000000000000000e+00
Cu 1.295633272058559715e+00 2.287084645239749470e-01 0.000000000000000000e+00
Cu 1.295598762544436067e+00 3.268794122762221921e-01 0.000000000000000000e+00
Cu 1.295784803938308860e+00 4.249301253182946048e-01 0.000000000000000000e+00
Cu 1.296295353223395841e+00 5.228441303866609990e-01 0.000000000000000000e+00
Cu 1.297075189620763958e+00 6.208162812025408428e-01 0.000000000000000000e+00
Cu 1.297968311302957423e+00 7.190402579436733221e-01 0.000000000000000000e+00
Cu 1.298998689804319984e+00 8.174826408913030695e-01 0.000000000000000000e+00
Cu 1.300193075408831334e+00 9.160440596632054566e-01 0.000000000000000000e+00
Cu 1.415435042843644409e+00 3.285517146237877661e-02 0.000000000000000000e+00
Cu 1.415116448713729769e+00 1.309691394413013688e-01 0.000000000000000000e+00
Cu 1.415008467141135373e+00 2.290011251196227005e-01 0.000000000000000000e+00
Cu 1.415094430877522624e+00 3.268910751621221245e-01 0.000000000000000000e+00
Cu 1.415373871402820560e+00 4.246377291354551664e-01 0.000000000000000000e+00
Cu 1.415822029492554757e+00 5.223361948365444762e-01 0.000000000000000000e+00
Cu 1.416385294542276574e+00 6.201314521104137611e-01 0.000000000000000000e+00
Cu 1.417056506507050617e+00 7.181099873371874498e-01 0.000000000000000000e+00
Cu 1.417875205710976028e+00 8.162800650331406560e-01 0.000000000000000000e+00
Cu 1.418850979018715819e+00 9.146014250452377814e-01 0.000000000000000000e+00
Cu 1.534932809774390838e+00 3.357113312499000746e-02 0.000000000000000000e+00
Cu 1.534718095572628505e+00 1.315365721447097069e-01 0.000000000000000000e+00
Cu 1.534777673291851885e+00 2.293628176862775592e-01 0.000000000000000000e+00
Cu 1.535027781022925142e+00 3.269936750491294619e-01 0.000000000000000000e+00
Cu 1.535380231913976878e+00 4.244677459874904857e-01 0.000000000000000000e+00
Cu 1.535758661393345381e+00 5.219020833927545677e-01 0.000000000000000000e+00
Cu 1.536140857798936166e+00 6.194335707256067858e-01 0.000000000000000000e+00
Cu 1.536574198939982816e+00 7.171609647022065825e-01 0.000000000000000000e+00
Cu 1.537139800659938382e+00 8.151182287197923371e-01 0.000000000000000000e+00
Cu 1.537914875862420594e+00 9.132555075932293764e-01 0.000000000000000000e+00
Cu 1.654633861620692148e+00 3.425685361403001811e-02 0.000000000000000000e+00
Cu 1.654618122629086363e+00 1.321126637227484635e-01 0.000000000000000000e+00
Cu 1.654947584137297589e+00 2.297561771736789937e-01 0.000000000000000000e+00
Cu 1.655440578095518589e+00 3.271478132243132997e-01 0.000000000000000000e+00
Cu 1.655914992132616392e+00 4.243567377135489815e-01 0.000000000000000000e+00
Cu 1.656243076912375045e+00 5.215154933433597817e-01 0.000000000000000000e+00
Cu 1.656412787130057351e+00 6.187714252110514401e-01 0.000000000000000000e+00
Cu 1.656529446673566053e+00 7.162490085544191976e-01 0.000000000000000000e+00
Cu 1.656758595860182703e+00 8.140093490167151780e-01 0.000000000000000000e+00
Cu 1.657272810264378338e+00 9.120075028345703272e-01 0.000000000000000000e+00
Cu 1.774428073609708223e+00 3.479295687084059396e-02 0.000000000000000000e+00
Cu 1.774779187787544288e+00 1.325849136380074234e-01 0.000000000000000000e+00
Cu 1.775543870559649351e+00 2.300553673754496820e-01 0.000000000000000000e+00
Cu 1.776400863934378460e+00 3.272240240617075857e-01 0.000000000000000000e+00
Cu 1.777061083455031776e+00 4.242312356366733650e-01 0.000000000000000000e+00
Cu 1.777353303379241911e+00 5.212087752199918711e-01 0.000000000000000000e+00
Cu 1.777267807831007573e+00 6.182523454302837340e-01 0.000000000000000000e+00
Cu 1.776957515830525303e+00 7.154899248530370848e-01 0.000000000000000000e+00
Cu 1.776696799042997155e+00 8.130554105077173466e-01 0.000000000000000000e+00
Cu 1.776797004611585074e+00 9.109611772797369111e-01 0.000000000000000000e+00
Cu 1.894153865332943276e+00 3.496016459383217284e-02 0.000000000000000000e+00
Cu 1.895180822633174778e+00 1.327340700406562657e-01 0.000000000000000000e+00
Cu 1.896639940383711975e+00 2.300082742077206033e-01 0.000000000000000000e+00
Cu 1.897969619056711466e+00 3.270019408901203017e-01 0.000000000000000000e+00
Cu 1.898810170383463447e+00 4.239980186479098689e-01 0.000000000000000000e+00
Cu 1.899077800097918711e+00 5.210495728024132633e-01 0.000000000000000000e+00
Cu 1.898763057533495280e+00 6.180732485700477508e-01 0.000000000000000000e+00
Cu 1.897932440266776988e+00 7.151195955527149817e-01 0.000000000000000000e+00
Cu 1.896933094703572742e+00 8.124668507664934980e-01 0.000000000000000000e+00
Cu 1.896318528196158537e+00 9.103281030150245368e-01 0.000000000000000000e+00
Cu 2.013534625128568845e+00 3.434483323049568326e-02 0.000000000000000000e+00
Cu 2.015882917835745580e+00 1.321361289425508900e-01 0.000000000000000000e+00
Cu 2.018394162638918132e+00 2.291694476471070607e-01 0.000000000000000000e+00
Cu 2.020124486987616486e+00 3.262284424048540465e-01 0.000000000000000000e+00
Cu 2.021011418707399532e+00 4.235965614781418975e-01 0.000000000000000000e+00
Cu 2.021263761784851010e+00 5.210769229819364190e-01 0.000000000000000000e+00
Cu 2.020872012430622533e+00 6.184672451408492755e-01 0.000000000000000000e+00
Cu 2.019609343512267952e+00 7.155681319661563178e-01 0.000000000000000000e+00
Cu 2.017524475715146259e+00 8.126580094546337341e-01 0.000000000000000000e+00
Cu 2.015556456426753407e+00 9.105150471948573188e-01 0.000000000000000000e+00
Cu 2.131978396964975264e+00 3.197262662366422148e-02 0.000000000000000000e+00
Cu 2.137252719411609991e+00 1.297864083506928556e-01 0.000000000000000000e+00
Cu 2.140874570601294824e+00 2.269935698424813408e-01 0.000000000000000000e+00
Cu 2.142584207644577354e+00 3.249113847358562346e-01 0.000000000000000000e+00
Cu 2.143448333666639005e+00 4.230498371171441119e-01 0.000000000000000000e+00
Cu 2.143692087039103189e+00 5.212470683616892142e-01 0.000000000000000000e+00
Cu 2.143306802054009808e+00 6.194080216200654743e-01 0.000000000000000000e+00
Cu 2.142049554938442402e+00 7.173661739036255591e-01 0.000000000000000000e+00
Cu 2.138835985419062169e+00 8.146256638922658722e-01 0.000000000000000000e+00
Cu 2.133917141927419880e+00 9.124929027104993207e-01 0.000000000000000000e+00
Cu 2.247884331123710222e+00 2.339960065598577568e-02 0.000000000000000000e+00
Cu 2.259730598094814358e+00 1.240079625671591523e-01 0.000000000000000000e+00
Cu 2.263269756351159678e+00 2.240336591310078396e-01 0.000000000000000000e+00
Cu 2.265116602022266168e+00 3.234182989623247129e-01 0.000000000000000000e+00
Cu 2.265989088810688834e+00 4.224660544652765748e-01 0.000000000000000000e+00
Cu 2.266227715673347465e+00 5.214310568950535352e-01 0.000000000000000000e+00
Cu 2.265825298688613820e+00 6.205080974483407896e-01 0.000000000000000000e+00
Cu 2.264427198421239407e+00 7.199461003878352416e-01 0.000000000000000000e+00
Cu 2.261299987767067421e+00 8.200370876216921401e-01 0.000000000000000000e+00
Cu 2.249813138581573391e+00 9.207179771516013078e-01 0.000000000000000000e+00
