200

Cu 0.000000000000000000e+00 1.185808287924940314e-02 0.000000000000000000e+00
Cu 0.000000000000000000e+00 1.169189703066435271e-01 0.000000000000000000e+00
Cu 0.000000000000000000e+00 2.220125507778478724e-01 0.000000000000000000e+00
Cu 0.000000000000000000e+00 3.271586619275282937e-01 0.000000000000000000e+00
Cu 0.000000000000000000e+00 4.323624455887397633e-01 0.000000000000000000e+00
Cu 0.000000000000000000e+00 5.376215265329675752e-01 0.000000000000000000e+00
Cu 0.000000000000000000e+00 6.429320755199943171e-01 0.000000000000000000e+00
Cu 0.000000000000000000e+00 7.482907536064961063e-01 0.000000000000000000e+00
Cu 0.000000000000000000e+00 8.536923456778788832e-01 0.000000000000000000e+00
Cu 0.000000000000000000e+00 9.591247039964797549e-01 0.000000000000000000e+00
Cu 1.060110964948971363e-01 1.208449017824756930e-02 0.000000000000000000e+00
Cu 1.058098888819700156e-01 1.170335700832339509e-01 0.000000000000000000e+00
Cu 1.056608061001146348e-01 2.221004019979134214e-01 0.000000000000000000e+00
Cu 1.055184563320378660e-01 3.272431374421867489e-01 0.000000000000000000e+00
Cu 1.053801055302580891e-01 4.324499292629820912e-01 0.000000000000000000e+00
Cu 1.052444155717989216e-01 5.377141269786355204e-01 0.000000000000000000e+00
Cu 1.051091582953458808e-01 6.430302047589908643e-01 0.000000000000000000e+00
Cu 1.049703716331250730e-01 7.483959563220953237e-01 0.000000000000000000e+00
Cu 1.048209088170526104e-01 8.538198929922783398e-01 0.000000000000000000e+00
Cu 1.046140792055089141e-01 9.593464678883991681e-01 0.000000000000000000e+00
Cu 2.119956842007728048e-01 1.237752416890613473e-02 0.000000000000000000e+00
Cu 2.116473310384758555e-01 1.173336171976496617e-01 0.000000000000000000e+00
Cu 2.113260255091346795e-01 2.223799162245496952e-01 0.000000000000000000e+00
Cu 2.110312886680118238e-01 3.275181214881050518e-01 0.000000000000000000e+00
Cu 2.107506413790989630e-01 4.327307417247964749e-01 0.000000000000000000e+00
Cu 2.104791997890785027e-01 5.380056152038401596e-01 0.000000000000000000e+00
Cu 2.102106876575339789e-01 6.433343529326290833e-01 0.000000000000000000e+00
Cu 2.099337326821638650e-01 7.487148863639225826e-01 0.000000000000000000e+00
Cu 2.096253129993483344e-01 8.541577129180707439e-01 0.000000000000000000e+00
Cu 2.092700988601592649e-01 9.596677537121748314e-01 0.000000000000000000e+00
Cu 3.179554924713359210e-01 1.281323542545025236e-02 0.000000000000000000e+00
Cu 3.174588215064717556e-01 1.177795672410965055e-01 0.000000000000000000e+00
Cu 3.169812225536127182e-01 2.228336475930149108e-01 0.000000000000000000e+00
Cu 3.165296591749475752e-01 3.279751269676975944e-01 0.000000000000000000e+00
Cu 3.161036121283932743e-01 4.331966715621450303e-01 0.000000000000000000e+00
Cu 3.156974044243208710e-01 5.384851997056430140e-01 0.000000000000000000e+00
Cu 3.153018415915156969e-01 6.438293094331728472e-01 0.000000000000000000e+00
Cu 3.148993903215703827e-01 7.492216300767470250e-01 0.000000000000000000e+00
Cu 3.144678029676014619e-01 8.546579458760170667e-01 0.000000000000000000e+00
Cu 3.139859356829991510e-01 9.601422349279983282e-01 0.000000000000000000e+00
Cu 4.238872449791060149e-01 1.339685900375264804e-02 0.000000000000000000e+00
Cu 4.232374755809545919e-01 1.183764783068872312e-01 0.000000000000000000e+00
Cu 4.226050522319773073e-01 2.234449312698206236e-01 0.000000000000000000e+00
Cu 4.220010837239770440e-01 3.286001038043693812e-01 0.000000000000000000e+00
Cu 4.214311757048699314e-01 4.338337389956936074e-01 0.000000000000000000e+00
Cu 4.208949412933435386e-01 5.391340354186759942e-01 0.000000000000000000e+00
Cu 4.203848650568092205e-01 6.444875827538680824e-01 0.000000000000000000e+00
Cu 4.198837636403759399e-01 7.498806371007640248e-01 0.000000000000000000e+00
Cu 4.193629723853540270e-01 8.553013723383279254e-01 0.000000000000000000e+00
Cu 4.187866456113260027e-01 9.607485752521705002e-01 0.000000000000000000e+00
Cu 5.297889692448225496e-01 1.413146418187312923e-02 0.000000000000000000e+00
Cu 5.289792174546202874e-01 1.191236977530272245e-01 0.000000000000000000e+00
Cu 5.281878259767429640e-01 2.242079329139022859e-01 0.000000000000000000e+00
Cu 5.274335943427207463e-01 3.293795139123796845e-01 0.000000000000000000e+00
Cu 5.267275093628063232e-01 4.346252901291670634e-01 0.000000000000000000e+00
Cu 5.260727888490472903e-01 5.399283297562559314e-01 0.000000000000000000e+00
Cu 5.254666091157329522e-01 6.452747941850929259e-01 0.000000000000000000e+00
Cu 5.248944351242815776e-01 7.506519322414593187e-01 0.000000000000000000e+00
Cu 5.243230724646953389e-01 8.560472993434253830e-01 0.000000000000000000e+00
Cu 5.236995698026786217e-01 9.614475215883094839e-01 0.000000000000000000e+00
Cu 6.356632835021583938e-01 1.502322339000233126e-02 0.000000000000000000e+00
Cu 6.346826885534669893e-01 1.200239655670473776e-01 0.000000000000000000e+00
Cu 6.337235498391192712e-01 2.251187809254888983e-01 0.000000000000000000e+00
Cu 6.328192353490245115e-01 3.303028886626352412e-01 0.000000000000000000e+00
Cu 6.319890400869960789e-01 4.355542427409707096e-01 0.000000000000000000e+00
Cu 6.312395072845157218e-01 5.408453815518861063e-01 0.000000000000000000e+00
Cu 6.305621126065041882e-01 6.461535111382089580e-01 0.000000000000000000e+00
Cu 6.299431519040543659e-01 7.514834760829899318e-01 0.000000000000000000e+00
Cu 6.293552337596213242e-01 8.568315565558093372e-01 0.000000000000000000e+00
Cu 6.287481011757283245e-01 9.621790949706484630e-01 0.000000000000000000e+00
Cu 7.415140461887131940e-01 1.608585660337359668e-02 0.000000000000000000e+00
Cu 7.403514145710665684e-01 1.210889937234831681e-01 0.000000000000000000e+00
Cu 7.392119421060264761e-01 2.261803669374642944e-01 0.000000000000000000e+00
Cu 7.381510754246972672e-01 3.313603110021543507e-01 0.000000000000000000e+00
Cu 7.372144783116210132e-01 4.366040442761482399e-01 0.000000000000000000e+00
Cu 7.364080743359703307e-01 5.418559658945061308e-01 0.000000000000000000e+00
Cu 7.357093095596310972e-01 6.470926867707449404e-01 0.000000000000000000e+00
Cu 7.350527931378523228e-01 7.523156057147589726e-01 0.000000000000000000e+00
Cu 7.344696803740069502e-01 8.575816314143339669e-01 0.000000000000000000e+00
Cu 7.339479582086765319e-01 9.628220112066753211e-01 0.000000000000000000e+00
Cu 8.473389980542466171e-01 1.733320837261055278e-02 0.000000000000000000e+00
Cu 8.459891007728137513e-01 1.223416960212156401e-01 0.000000000000000000e+00
Cu 8.446643971312581822e-01 2.274142896414229620e-01 0.000000000000000000e+00
Cu 8.434311122623429080e-01 3.325516096683170941e-01 0.000000000000000000e+00
Cu 8.423955377733892691e-01 4.377456204345973600e-01 0.000000000000000000e+00
Cu 8.416177520861003458e-01 5.429199463037081008e-01 0.000000000000000000e+00
Cu 8.409374615820819354e-01 6.480188378458776599e-01 0.000000000000000000e+00
Cu 8.402624446281604653e-01 7.531944029666653995e-01 0.000000000000000000e+00
Cu 3.752107760037316719e+00 6.802069481444554810e-01 0.000000000000000000e+00
Cu 3.729093910965249670e+00 7.823591039707035177e-01 0.000000000000000000e+00
Cu 9.531311452465555112e-01 1.878415821500463434e-02 0.000000000000000000e+00
Cu 9.515806962293962279e-01 1.237977502563656906e-01 0.000000000000000000e+00
Cu 9.500917534707469247e-01 2.288745396135483390e-01 0.000000000000000000e+00
Cu 9.486939142962734772e-01 3.339249699664758597e-01 0.000000000000000000e+00
Cu 9.475454143367232351e-01 4.389506366211244348e-01 0.000000000000000000e+00
Cu 9.469613655100582728e-01 5.438433319846384117e-01 0.000000000000000000e+00
Cu 9.462542194483745117e-01 6.489348369522073279e-01 0.000000000000000000e+00
Cu 3.884760424245658594e+00 6.036558505023542631e-01 0.000000000000000000e+00
Cu 3.859956057843252797e+00 7.039588509423709839e-01 0.000000000000000000e+00
Cu 3.839469764755656822e+00 8.030223913332175112e-01 0.000000000000000000e+00
Cu 1.058869230760095981e+00 2.044942921812736153e-02 0.000000000000000000e+00
Cu 1.057114131325550099e+00 1.254932323337136224e-01 0.000000000000000000e+00
Cu 1.055423025863335029e+00 2.305581434556022713e-01 0.000000000000000000e+00
Cu 1.053957722955625842e+00 3.356894873995350803e-01 0.000000000000000000e+00
Cu 4.074734680650236918e+00 3.282073518140661283e-01 0.000000000000000000e+00
Cu 4.039773191625269710e+00 4.263963325239763513e-01 0.000000000000000000e+00
Cu 4.020258515222948859e+00 5.283144063542737356e-01 0.000000000000000000e+00
Cu 3.994654090438864991e+00 6.270747337789972509e-01 0.000000000000000000e+00
Cu 3.973841630172163519e+00 7.247962635400218012e-01 0.000000000000000000e+00
Cu 3.956495530666309435e+00 8.214957379878022881e-01 0.000000000000000000e+00
Cu 1.164541465721538493e+00 2.237851300752564249e-02 0.000000000000000000e+00
Cu 1.162524963170785464e+00 1.274311958290604008e-01 0.000000000000000000e+00
Cu 1.160695558429394536e+00 2.325829466461574457e-01 0.000000000000000000e+00
Cu 4.211477943816973379e+00 2.580710527668739207e-01 0.000000000000000000e+00
Cu 4.180337831138909443e+00 3.569219062078036742e-01 0.000000000000000000e+00
Cu 4.158008404761345922e+00 4.545672481013311450e-01 0.000000000000000000e+00
Cu 4.131482798107125376e+00 5.498891799573251138e-01 0.000000000000000000e+00
Cu 4.111303528930100981e+00 6.470371379365374986e-01 0.000000000000000000e+00
Cu 4.093519434881165431e+00 7.423759588633854767e-01 0.000000000000000000e+00
Cu 4.079141532506269208e+00 8.368851280674717286e-01 0.000000000000000000e+00
Cu 1.270088722311025320e+00 2.456716501759469845e-02 0.000000000000000000e+00
Cu 1.267841185319763309e+00 1.297238250906840307e-01 0.000000000000000000e+00
Cu 4.351606684792843183e+00 1.898123533375414562e-01 0.000000000000000000e+00
Cu 4.320460939082439999e+00 2.866911909800677893e-01 0.000000000000000000e+00
Cu 4.295184370795509743e+00 3.819539907090596098e-01 0.000000000000000000e+00
Cu 4.272700802844955348e+00 4.767272291208361490e-01 0.000000000000000000e+00
Cu 4.251892937610752377e+00 5.708546490046466637e-01 0.000000000000000000e+00
Cu 4.233574664879711236e+00 6.637854273615968470e-01 0.000000000000000000e+00
Cu 4.218595043098749109e+00 7.568420330509247895e-01 0.000000000000000000e+00
Cu 4.206570499483300196e+00 8.493236142733265881e-01 0.000000000000000000e+00
Cu 1.375527902337602137e+00 2.721210494831324822e-02 0.000000000000000000e+00
Cu 4.491803676336733275e+00 1.229658290256427644e-01 0.000000000000000000e+00
Cu 4.462379517470974832e+00 2.188385082216851296e-01 0.000000000000000000e+00
Cu 4.437642444249648932e+00 3.123734738640245867e-01 0.000000000000000000e+00
Cu 4.415730144491447184e+00 4.044243664283131423e-01 0.000000000000000000e+00
Cu 4.395848171273729399e+00 4.959722250151044065e-01 0.000000000000000000e+00
Cu 4.377787358834720699e+00 5.871257145856244586e-01 0.000000000000000000e+00
Cu 4.361798683105521768e+00 6.779312296098747304e-01 0.000000000000000000e+00
Cu 4.348405554895763636e+00 7.685892606663529136e-01 0.000000000000000000e+00
Cu 4.338193244178959240e+00 8.592229799232737886e-01 0.000000000000000000e+00
Cu 4.628541007766109772e+00 5.495870200498232522e-02 0.000000000000000000e+00
Cu 4.604011323440832193e+00 1.509138686718833333e-01 0.000000000000000000e+00
Cu 4.581924853305833878e+00 2.433765682873155201e-01 0.000000000000000000e+00
Cu 4.561845232098097114e+00 3.338048935982217413e-01 0.000000000000000000e+00
Cu 4.543187066306687782e+00 4.231653135717034497e-01 0.000000000000000000e+00
Cu 4.525638331564920236e+00 5.119867753403481991e-01 0.000000000000000000e+00
Cu 4.509361477685578379e+00 6.006351410223280674e-01 0.000000000000000000e+00
Cu 4.494782034694597250e+00 6.893064037791157839e-01 0.000000000000000000e+00
Cu 4.482559740081291544e+00 7.781297872934102022e-01 0.000000000000000000e+00
Cu 4.473459257800715960e+00 8.670980730146815585e-01 0.000000000000000000e+00
Cu 4.741759510053339177e+00 7.798662981470329270e-02 0.000000000000000000e+00
Cu 4.725326041310609071e+00 1.720103712597312873e-01 0.000000000000000000e+00
Cu 4.708922966473856775e+00 2.624672275823100587e-01 0.000000000000000000e+00
Cu 4.692843920306174255e+00 3.508429742569023069e-01 0.000000000000000000e+00
Cu 4.676919782184588037e+00 4.381939931085459539e-01 0.000000000000000000e+00
Cu 4.661212668743293541e+00 5.251107435314117389e-01 0.000000000000000000e+00
Cu 4.646089823997340496e+00 6.118780083122504765e-01 0.000000000000000000e+00
Cu 4.632206209404260200e+00 6.987508185142871087e-01 0.000000000000000000e+00
Cu 4.620455064578296245e+00 7.859701589784935383e-01 0.000000000000000000e+00
Cu 4.611889792175201563e+00 8.735647897607810020e-01 0.000000000000000000e+00
Cu 4.864690923637010833e+00 9.618002483902589328e-02 0.000000000000000000e+00
Cu 4.854030629787511764e+00 1.878053319414565991e-01 0.000000000000000000e+00
Cu 4.842635025164780060e+00 2.766837595595725285e-01 0.000000000000000000e+00
Cu 4.830035277424549633e+00 3.637058952594028893e-01 0.000000000000000000e+00
Cu 4.816277441493773459e+00 4.499770014281057606e-01 0.000000000000000000e+00
Cu 4.801915730896607393e+00 5.359500932194498635e-01 0.000000000000000000e+00
Cu 4.787533138248497799e+00 6.216024915775149040e-01 0.000000000000000000e+00
Cu 4.773759746551883509e+00 7.070878206636376229e-01 0.000000000000000000e+00
Cu 4.761700357274774476e+00 7.929073001522534136e-01 0.000000000000000000e+00
Cu 4.752901810594301502e+00 8.793688308541601772e-01 0.000000000000000000e+00
Cu 4.995190199216719584e+00 1.097760812025406069e-01 0.000000000000000000e+00
Cu 4.989778425860944999e+00 1.992701326802638617e-01 0.000000000000000000e+00
Cu 4.982906752028358532e+00 2.865456065739484526e-01 0.000000000000000000e+00
Cu 4.972994403059996849e+00 3.729468853720883104e-01 0.000000000000000000e+00
Cu 4.960586030738817875e+00 4.592454906413772076e-01 0.000000000000000000e+00
Cu 4.947118169857889214e+00 5.452475002565493334e-01 0.000000000000000000e+00
Cu 4.933364576657190526e+00 6.307883110459475695e-01 0.000000000000000000e+00
Cu 4.919353020110668773e+00 7.154595285898673884e-01 0.000000000000000000e+00
Cu 4.905994473401737999e+00 7.999760388472401118e-01 0.000000000000000000e+00
Cu 4.895702618540993534e+00 8.855796702010906296e-01 0.000000000000000000e+00
Cu 5.130908398150427985e+00 1.173656175506973265e-01 0.000000000000000000e+00
Cu 5.132641580535590720e+00 2.054018264054437160e-01 0.000000000000000000e+00
Cu 5.130064439419006028e+00 2.919562464594908646e-01 0.000000000000000000e+00
Cu 5.120902567056600851e+00 3.796155806884688455e-01 0.000000000000000000e+00
Cu 5.109307124118567245e+00 4.669930960198876990e-01 0.000000000000000000e+00
Cu 5.096370331647199770e+00 5.538082971678781607e-01 0.000000000000000000e+00
Cu 5.082860332061254205e+00 6.399922716884727247e-01 0.000000000000000000e+00
Cu 5.069397440032001434e+00 7.255524649784323987e-01 0.000000000000000000e+00
Cu 5.053402213845783919e+00 8.089781754733584851e-01 0.000000000000000000e+00
Cu 5.038583676294456026e+00 8.940429461042140868e-01 0.000000000000000000e+00
Cu 5.265061142120001314e+00 1.098210713798622312e-01 0.000000000000000000e+00
Cu 5.285801964189397850e+00 2.025159701786283795e-01 0.000000000000000000e+00
Cu 5.281702247326443000e+00 2.949257559902967452e-01 0.000000000000000000e+00
Cu 5.273450455277224336e+00 3.855104980257175740e-01 0.000000000000000000e+00
Cu 5.262037123560367569e+00 4.744471808114831268e-01 0.000000000000000000e+00
Cu 5.249335878024980140e+00 5.622527099025371733e-01 0.000000000000000000e+00
Cu 5.236113604146379608e+00 6.493694352173536855e-01 0.000000000000000000e+00
Cu 5.221893430658122170e+00 7.364600684147274423e-01 0.000000000000000000e+00
Cu 5.207501040971591166e+00 8.248717052737509769e-01 0.000000000000000000e+00
Cu 5.174112970207866091e+00 9.124498243016292420e-01 0.000000000000000000e+00
