200

Cu 0.000000000000000000e+00 -2.755848150961912220e-03 0.000000000000000000e+00
Cu 0.000000000000000000e+00 1.001312814312153160e-01 0.000000000000000000e+00
Cu 0.000000000000000000e+00 2.030451788911566413e-01 0.000000000000000000e+00
Cu 0.000000000000000000e+00 3.062301960096598386e-01 0.000000000000000000e+00
Cu 0.000000000000000000e+00 4.098043035868156325e-01 0.000000000000000000e+00
Cu 0.000000000000000000e+00 5.138143068429751326e-01 0.000000000000000000e+00
Cu 0.000000000000000000e+00 6.182902179333850112e-01 0.000000000000000000e+00
Cu 0.000000000000000000e+00 7.232607919073875680e-01 0.000000000000000000e+00
Cu 0.000000000000000000e+00 8.287403991097632705e-01 0.000000000000000000e+00
Cu 0.000000000000000000e+00 9.346913652641147818e-01 0.000000000000000000e+00
Cu 1.128042836063892218e-01 -7.014384738294867977e-04 0.000000000000000000e+00
Cu 1.112684229402872843e-01 1.011098875872122466e-01 0.000000000000000000e+00
Cu 1.101786944469790586e-01 2.037449291848471566e-01 0.000000000000000000e+00
Cu 1.091036123102974986e-01 3.068775833433719513e-01 0.000000000000000000e+00
Cu 1.080192328567920607e-01 4.104624210768727521e-01 0.000000000000000000e+00
Cu 1.069142142651541144e-01 5.145052909015327414e-01 0.000000000000000000e+00
Cu 1.057748344740665064e-01 6.190183116888324788e-01 0.000000000000000000e+00
Cu 1.045788270779105245e-01 7.240317294017589722e-01 0.000000000000000000e+00
Cu 1.032882141424618511e-01 8.296365500535024529e-01 0.000000000000000000e+00
Cu 1.016423574254627510e-01 9.361312001286592466e-01 0.000000000000000000e+00
Cu 2.253363824309976560e-01 1.681799243918887790e-03 0.000000000000000000e+00
Cu 2.227765602457335570e-01 1.035191266537175830e-01 0.000000000000000000e+00
Cu 2.203856475491995093e-01 2.059412848597616252e-01 0.000000000000000000e+00
Cu 2.181446230603863723e-01 3.090127835416309754e-01 0.000000000000000000e+00
Cu 2.159344720193157319e-01 4.126347902326929495e-01 0.000000000000000000e+00
Cu 2.137159264622700561e-01 5.167609169189638640e-01 0.000000000000000000e+00
Cu 2.114484308306726623e-01 6.213731829861122158e-01 0.000000000000000000e+00
Cu 2.090641511309979939e-01 7.264910635428316610e-01 0.000000000000000000e+00
Cu 2.064294119259794391e-01 8.322093091835557344e-01 0.000000000000000000e+00
Cu 2.034585816814801218e-01 9.385984675766411156e-01 0.000000000000000000e+00
Cu 3.376180312073946976e-01 5.081942690646748875e-03 0.000000000000000000e+00
Cu 3.340136077000922521e-01 1.070016700490584310e-01 0.000000000000000000e+00
Cu 3.304626674528811647e-01 2.094790739896887632e-01 0.000000000000000000e+00
Cu 3.270094625036430447e-01 3.125690952157667013e-01 0.000000000000000000e+00
Cu 3.236376574880742707e-01 4.162647375338934808e-01 0.000000000000000000e+00
Cu 3.203005290882272038e-01 5.205101698018499423e-01 0.000000000000000000e+00
Cu 3.169406323325789643e-01 6.252593784480421357e-01 0.000000000000000000e+00
Cu 3.134515668403346500e-01 7.304872798049326654e-01 0.000000000000000000e+00
Cu 3.096964168074911039e-01 8.361908245205622592e-01 0.000000000000000000e+00
Cu 3.055411810093791036e-01 9.424299305808618854e-01 0.000000000000000000e+00
Cu 4.495982163010679988e-01 9.586336758717537571e-03 0.000000000000000000e+00
Cu 4.448914068649097442e-01 1.116162243382340102e-01 0.000000000000000000e+00
Cu 4.401858670288137376e-01 2.142220427634248525e-01 0.000000000000000000e+00
Cu 4.355500127658928355e-01 3.174388980257611403e-01 0.000000000000000000e+00
Cu 4.310162642457545656e-01 4.212553434158720633e-01 0.000000000000000000e+00
Cu 4.265808605949484855e-01 5.256286017577320724e-01 0.000000000000000000e+00
Cu 4.222032210246948192e-01 6.304997186589845759e-01 0.000000000000000000e+00
Cu 4.177841099086250232e-01 7.357990128053786272e-01 0.000000000000000000e+00
Cu 4.131404733298917331e-01 8.414594956715295559e-01 0.000000000000000000e+00
Cu 4.080344067182800627e-01 9.474877620135555567e-01 0.000000000000000000e+00
Cu 5.612270296634063182e-01 1.524340096647249301e-02 0.000000000000000000e+00
Cu 5.553429166194647770e-01 1.173810294066692794e-01 0.000000000000000000e+00
Cu 5.494339199699368459e-01 2.201361152566145285e-01 0.000000000000000000e+00
Cu 5.436189592565420226e-01 3.235238173070112966e-01 0.000000000000000000e+00
Cu 5.379685324824626802e-01 4.274934187192052648e-01 0.000000000000000000e+00
Cu 5.325069368532642233e-01 5.319621762144615129e-01 0.000000000000000000e+00
Cu 5.272288865618556253e-01 6.368674985044551207e-01 0.000000000000000000e+00
Cu 5.220653967808687179e-01 7.421523964699011655e-01 0.000000000000000000e+00
Cu 5.168150892999716639e-01 8.477377190827979359e-01 0.000000000000000000e+00
Cu 5.111167941456696839e-01 9.535121139493573095e-01 0.000000000000000000e+00
Cu 6.724818545779153167e-01 2.212501160297363975e-02 0.000000000000000000e+00
Cu 6.653157724817683194e-01 1.243371268319813511e-01 0.000000000000000000e+00
Cu 6.581151736085568693e-01 2.272057070660921385e-01 0.000000000000000000e+00
Cu 6.511012953430409533e-01 3.307532290245554507e-01 0.000000000000000000e+00
Cu 6.444071916198583772e-01 4.348640714620914949e-01 0.000000000000000000e+00
Cu 6.380845212053610771e-01 5.393689215028907302e-01 0.000000000000000000e+00
Cu 6.320904860851128682e-01 6.441226421544740122e-01 0.000000000000000000e+00
Cu 6.263546541184134009e-01 7.491819772711304504e-01 0.000000000000000000e+00
Cu 6.207495177108478535e-01 8.545584624872037960e-01 0.000000000000000000e+00
Cu 6.149721402913460588e-01 9.600796316217085069e-01 0.000000000000000000e+00
Cu 7.833405287702197572e-01 3.035767948575918487e-02 0.000000000000000000e+00
Cu 7.747873176190078759e-01 1.325958354338361289e-01 0.000000000000000000e+00
Cu 7.661791480049648939e-01 2.354669637780355262e-01 0.000000000000000000e+00
Cu 7.578914942663277365e-01 3.390585843024517820e-01 0.000000000000000000e+00
Cu 7.502611766756220879e-01 4.432527887492395124e-01 0.000000000000000000e+00
Cu 7.433539495833202393e-01 5.476570752831173561e-01 0.000000000000000000e+00
Cu 7.370322588964703936e-01 6.520809782591759918e-01 0.000000000000000000e+00
Cu 7.308411511834834728e-01 7.565025868616441773e-01 0.000000000000000000e+00
Cu 7.250094486750473521e-01 8.613756840789086322e-01 0.000000000000000000e+00
Cu 7.198017180866036480e-01 9.662084164819891852e-01 0.000000000000000000e+00
Cu 8.937310785568709504e-01 4.006713995943859269e-02 0.000000000000000000e+00
Cu 8.837247961331401447e-01 1.423467948499151647e-01 0.000000000000000000e+00
Cu 8.736587225261217560e-01 2.451119159931360592e-01 0.000000000000000000e+00
Cu 8.639533458071845251e-01 3.484434347356415995e-01 0.000000000000000000e+00
Cu 8.554070802532117712e-01 4.524459526565620671e-01 0.000000000000000000e+00
Cu 8.485576647699206720e-01 5.565588270205418242e-01 0.000000000000000000e+00
Cu 8.422622348927860658e-01 6.602119888522868241e-01 0.000000000000000000e+00
Cu 8.357595389305773059e-01 7.645007806316251875e-01 0.000000000000000000e+00
Cu 1.949917850814245623e+00 7.225031564745379997e-01 0.000000000000000000e+00
Cu 1.933633482766702993e+00 8.261319164414210325e-01 0.000000000000000000e+00
Cu 1.003540514072991163e+00 5.139723375983507037e-02 0.000000000000000000e+00
Cu 9.919619566915349740e-01 1.537122466608611959e-01 0.000000000000000000e+00
Cu 9.805453205450539444e-01 2.565518202541822168e-01 0.000000000000000000e+00
Cu 9.694997191396653724e-01 3.593515119158762205e-01 0.000000000000000000e+00
Cu 9.598604383454366618e-01 4.622349473520789842e-01 0.000000000000000000e+00
Cu 9.544288487170740076e-01 5.646761720178637978e-01 0.000000000000000000e+00
Cu 9.478525251346557878e-01 6.684908718219362278e-01 0.000000000000000000e+00
Cu 2.076016461848009254e+00 6.367766412862668757e-01 0.000000000000000000e+00
Cu 2.058007898364872634e+00 7.390370357250318767e-01 0.000000000000000000e+00
Cu 2.043574884937062297e+00 8.400909130986720097e-01 0.000000000000000000e+00
Cu 1.112561594762204731e+00 6.442284359873673427e-02 0.000000000000000000e+00
Cu 1.099337867323278539e+00 1.669262380324048056e-01 0.000000000000000000e+00
Cu 1.086287691042319148e+00 2.697286330013671241e-01 0.000000000000000000e+00
Cu 1.074407528862313832e+00 3.732889037791622400e-01 0.000000000000000000e+00
Cu 2.246711356905986445e+00 3.475539227946444765e-01 0.000000000000000000e+00
Cu 2.219252391506350008e+00 4.485702250058771212e-01 0.000000000000000000e+00
Cu 2.204776601505760159e+00 5.520172196158498190e-01 0.000000000000000000e+00
Cu 2.185765505264836150e+00 6.531545524126329827e-01 0.000000000000000000e+00
Cu 2.170784708026419096e+00 7.531513539088983133e-01 0.000000000000000000e+00
Cu 2.158732806612957411e+00 8.521270518049129938e-01 0.000000000000000000e+00
Cu 1.220630042695894701e+00 7.945476558110875498e-02 0.000000000000000000e+00
Cu 1.205361622193257265e+00 1.819536372446952377e-01 0.000000000000000000e+00
Cu 1.190984794886851716e+00 2.854130169969772979e-01 0.000000000000000000e+00
Cu 2.377728999207628480e+00 2.684563796756944676e-01 0.000000000000000000e+00
Cu 2.353138444351908998e+00 3.695996316015117134e-01 0.000000000000000000e+00
Cu 2.335922206457844652e+00 4.693578038402685948e-01 0.000000000000000000e+00
Cu 2.315576440040648887e+00 5.674710987529327788e-01 0.000000000000000000e+00
Cu 2.300785368805974507e+00 6.668165024845241762e-01 0.000000000000000000e+00
Cu 2.288131528906731216e+00 7.646452353641302047e-01 0.000000000000000000e+00
Cu 2.278344099777572129e+00 8.616547189197769629e-01 0.000000000000000000e+00
Cu 1.327300272798124015e+00 9.642563216891178457e-02 0.000000000000000000e+00
Cu 1.310072695318951430e+00 1.995339906079251213e-01 0.000000000000000000e+00
Cu 2.512058574081200479e+00 1.913646703755156886e-01 0.000000000000000000e+00
Cu 2.486966399167674258e+00 2.906798185060370798e-01 0.000000000000000000e+00
Cu 2.466984353820379727e+00 3.884192559967528102e-01 0.000000000000000000e+00
Cu 2.449630412433551285e+00 4.856830761711227185e-01 0.000000000000000000e+00
Cu 2.433871173953810807e+00 5.823537482184047986e-01 0.000000000000000000e+00
Cu 2.420391532500408172e+00 6.780049106533900805e-01 0.000000000000000000e+00
Cu 2.409832055675081630e+00 7.736993603058600621e-01 0.000000000000000000e+00
Cu 2.401812573895188763e+00 8.688661973596347732e-01 0.000000000000000000e+00
Cu 1.432434991459112350e+00 1.166153882392009095e-01 0.000000000000000000e+00
Cu 2.646809822997358896e+00 1.161054884609437066e-01 0.000000000000000000e+00
Cu 2.622761184876516882e+00 2.143804624760993760e-01 0.000000000000000000e+00
Cu 2.602849497765659326e+00 3.104979068375924300e-01 0.000000000000000000e+00
Cu 2.585581463507327538e+00 4.052941185045610406e-01 0.000000000000000000e+00
Cu 2.570247788405025879e+00 4.995985004798472184e-01 0.000000000000000000e+00
Cu 2.556633463624390146e+00 5.935405708264456237e-01 0.000000000000000000e+00
Cu 2.544894740312335646e+00 6.871815317387458544e-01 0.000000000000000000e+00
Cu 2.535441205767437367e+00 7.806950963583086933e-01 0.000000000000000000e+00
Cu 2.528713152077456616e+00 8.741661034822343357e-01 0.000000000000000000e+00
Cu 2.778819698791370474e+00 4.055985961899028630e-02 0.000000000000000000e+00
Cu 2.758577104002207125e+00 1.386442739014644709e-01 0.000000000000000000e+00
Cu 2.740544888345585850e+00 2.336903356967510448e-01 0.000000000000000000e+00
Cu 2.724500809449682315e+00 3.269613531391844519e-01 0.000000000000000000e+00
Cu 2.709892097775837172e+00 4.192455565218634050e-01 0.000000000000000000e+00
Cu 2.696407845163268924e+00 5.110255297674362041e-01 0.000000000000000000e+00
Cu 2.684126512058695457e+00 6.026417185452217495e-01 0.000000000000000000e+00
Cu 2.673371114035190121e+00 6.942901726616800273e-01 0.000000000000000000e+00
Cu 2.664668097828205795e+00 7.860935680645197987e-01 0.000000000000000000e+00
Cu 2.658634573461613471e+00 8.780404634107938922e-01 0.000000000000000000e+00
Cu 2.891206543191764400e+00 5.937037794330365936e-02 0.000000000000000000e+00
Cu 2.877648438685088461e+00 1.554980361733349081e-01 0.000000000000000000e+00
Cu 2.864439299117305548e+00 2.486446201900920916e-01 0.000000000000000000e+00
Cu 2.851776085188133081e+00 3.399522005116806800e-01 0.000000000000000000e+00
Cu 2.839456146301867712e+00 4.303339659657814398e-01 0.000000000000000000e+00
Cu 2.827442832028850717e+00 5.203121472582905582e-01 0.000000000000000000e+00
Cu 2.815987214450533571e+00 6.101512405185438581e-01 0.000000000000000000e+00
Cu 2.805609665483795201e+00 7.000961151178978215e-01 0.000000000000000000e+00
Cu 2.797052143741019403e+00 7.903845831012751288e-01 0.000000000000000000e+00
Cu 2.791194124456406467e+00 8.810598565593280584e-01 0.000000000000000000e+00
Cu 3.011538437043952854e+00 7.415616410449443752e-02 0.000000000000000000e+00
Cu 3.002821196081648214e+00 1.680964217423800700e-01 0.000000000000000000e+00
Cu 2.993901862296172389e+00 2.596735476267219567e-01 0.000000000000000000e+00
Cu 2.984240358569179463e+00 3.496354873562534937e-01 0.000000000000000000e+00
Cu 2.973750964368744754e+00 4.389528091396590059e-01 0.000000000000000000e+00
Cu 2.962823460550862098e+00 5.280109230775555940e-01 0.000000000000000000e+00
Cu 2.951884502508531849e+00 6.167744327032960161e-01 0.000000000000000000e+00
Cu 2.941405349108829004e+00 7.053806409168960068e-01 0.000000000000000000e+00
Cu 2.932308413418191595e+00 7.943191316975112271e-01 0.000000000000000000e+00
Cu 2.925916505159456005e+00 8.839285537932017878e-01 0.000000000000000000e+00
Cu 3.138024188062031428e+00 8.512767677272882472e-02 0.000000000000000000e+00
Cu 3.133879975683179442e+00 1.771393175725612668e-01 0.000000000000000000e+00
Cu 3.128906106160055600e+00 2.671347801008718270e-01 0.000000000000000000e+00
Cu 3.121540338889479127e+00 3.564299194716888941e-01 0.000000000000000000e+00
Cu 3.112187557032257246e+00 4.457136636500149685e-01 0.000000000000000000e+00
Cu 3.101995759134281272e+00 5.347702475944486888e-01 0.000000000000000000e+00
Cu 3.091534135000617134e+00 6.233956213245258615e-01 0.000000000000000000e+00
Cu 3.080744500902621308e+00 7.112282726037731928e-01 0.000000000000000000e+00
Cu 3.070246744639196557e+00 7.988952639696947911e-01 0.000000000000000000e+00
Cu 3.062142839897521451e+00 8.876612351058715822e-01 0.000000000000000000e+00
Cu 3.268621675663883508e+00 9.093973697816917778e-02 0.000000000000000000e+00
Cu 3.271019515018056545e+00 1.815669992997608895e-01 0.000000000000000000e+00
Cu 3.269657718621324705e+00 2.708551190030838995e-01 0.000000000000000000e+00
Cu 3.262948691268646950e+00 3.612332034238523448e-01 0.000000000000000000e+00
Cu 3.254256013546562354e+00 4.514582253815467294e-01 0.000000000000000000e+00
Cu 3.244513840804459814e+00 5.412441533774177138e-01 0.000000000000000000e+00
Cu 3.234294303666900738e+00 6.304996383896979140e-01 0.000000000000000000e+00
Cu 3.223901920164289336e+00 7.191340627336758606e-01 0.000000000000000000e+00
Cu 3.211104129793038275e+00 8.059184346809912247e-01 0.000000000000000000e+00
Cu 3.198407793539591371e+00 8.940632719329831835e-01 0.000000000000000000e+00
Cu 3.397880536205957647e+00 8.308794147143036546e-02 0.000000000000000000e+00
Cu 3.416431709049736032e+00 1.780695543539888015e-01 0.000000000000000000e+00
Cu 3.414078995427793028e+00 2.726268984523128602e-01 0.000000000000000000e+00
Cu 3.408080117969646050e+00 3.656066304527554878e-01 0.000000000000000000e+00
Cu 3.399596107828568137e+00 4.572270069529172365e-01 0.000000000000000000e+00
Cu 3.390082392474919271e+00 5.479203673193239199e-01 0.000000000000000000e+00
Cu 3.380091554762571171e+00 6.380786743559133667e-01 0.000000000000000000e+00
Cu 3.369185773388188920e+00 7.283088024988347842e-01 0.000000000000000000e+00
Cu 3.357468879317205612e+00 8.196296635450686097e-01 0.000000000000000000e+00
Cu 3.328844054862124313e+00 9.107207910577014287e-01 0.000000000000000000e+00
