200

Cu 0.000000000000000000e+00 -5.336200250383077480e-04 0.000000000000000000e+00
Cu 0.000000000000000000e+00 1.004992292746096083e-01 0.000000000000000000e+00
Cu 0.000000000000000000e+00 2.012183402365931850e-01 0.000000000000000000e+00
Cu 0.000000000000000000e+00 3.020762265422418102e-01 0.000000000000000000e+00
Cu 0.000000000000000000e+00 4.033379003055555523e-01 0.000000000000000000e+00
Cu 0.000000000000000000e+00 5.051556731779709430e-01 0.000000000000000000e+00
Cu 0.000000000000000000e+00 6.076492935491183411e-01 0.000000000000000000e+00
Cu 0.000000000000000000e+00 7.109267351139947344e-01 0.000000000000000000e+00
Cu 0.000000000000000000e+00 8.150800231876036417e-01 0.000000000000000000e+00
Cu 0.000000000000000000e+00 9.201532981295807989e-01 0.000000000000000000e+00
Cu 1.175188214687827859e-01 2.458487134720650086e-03 0.000000000000000000e+00
Cu 1.156345195215061905e-01 1.018051171083024231e-01 0.000000000000000000e+00
Cu 1.143819705630940292e-01 2.020658497879871396e-01 0.000000000000000000e+00
Cu 1.130935664141046182e-01 3.028209995895880247e-01 0.000000000000000000e+00
Cu 1.117396095238018389e-01 4.040801748909132463e-01 0.000000000000000000e+00
Cu 1.103081891185081764e-01 5.059321523962045930e-01 0.000000000000000000e+00
Cu 1.087911097026384999e-01 6.084669860356094473e-01 0.000000000000000000e+00
Cu 1.071771477009816897e-01 7.117817646498251216e-01 0.000000000000000000e+00
Cu 1.054543556079622774e-01 8.160044027651084386e-01 0.000000000000000000e+00
Cu 1.035151439021135267e-01 9.213680023677854880e-01 0.000000000000000000e+00
Cu 2.346270147620623248e-01 5.436022690828986453e-03 0.000000000000000000e+00
Cu 2.316447795040319779e-01 1.047979825355558198e-01 0.000000000000000000e+00
Cu 2.288154827214110842e-01 2.047241028636451743e-01 0.000000000000000000e+00
Cu 2.261028461245455368e-01 3.053738582232632948e-01 0.000000000000000000e+00
Cu 2.233264643446630227e-01 4.066743064931904739e-01 0.000000000000000000e+00
Cu 2.204408694919803013e-01 5.086340590533140471e-01 0.000000000000000000e+00
Cu 2.174146122874643094e-01 6.112939833858090921e-01 0.000000000000000000e+00
Cu 2.142054966682805373e-01 7.147193162731030336e-01 0.000000000000000000e+00
Cu 2.107417079395826898e-01 8.190269055052371572e-01 0.000000000000000000e+00
Cu 2.069738589208131307e-01 9.243566044392047543e-01 0.000000000000000000e+00
Cu 3.513875259614052671e-01 9.467034544011555461e-03 0.000000000000000000e+00
Cu 3.472556570156115074e-01 1.089635037602732504e-01 0.000000000000000000e+00
Cu 3.430560396567102210e-01 2.089800680387285947e-01 0.000000000000000000e+00
Cu 3.388406165705725170e-01 3.096648563247331731e-01 0.000000000000000000e+00
Cu 3.345783068634473056e-01 4.110786755828548800e-01 0.000000000000000000e+00
Cu 3.302122269159348811e-01 5.132141964538740053e-01 0.000000000000000000e+00
Cu 3.257002094969776440e-01 6.160717228906569254e-01 0.000000000000000000e+00
Cu 3.209679106557880024e-01 7.196626416249892744e-01 0.000000000000000000e+00
Cu 3.159087006431502975e-01 8.240299923696627893e-01 0.000000000000000000e+00
Cu 3.104066306941707931e-01 9.292969645577433546e-01 0.000000000000000000e+00
Cu 4.677160082563416865e-01 1.474570226496870785e-02 0.000000000000000000e+00
Cu 4.623253367007585934e-01 1.144335995780956655e-01 0.000000000000000000e+00
Cu 4.567493929080950199e-01 2.146773525878466204e-01 0.000000000000000000e+00
Cu 4.510604260415238542e-01 3.155871901446333783e-01 0.000000000000000000e+00
Cu 4.452902780520798798e-01 4.172181610785428707e-01 0.000000000000000000e+00
Cu 4.394386361019443910e-01 5.195824389869214688e-01 0.000000000000000000e+00
Cu 4.334873021905367163e-01 6.226708935878969564e-01 0.000000000000000000e+00
Cu 4.273691933623396388e-01 7.264569911939920965e-01 0.000000000000000000e+00
Cu 4.209178693467748311e-01 8.309071234927075666e-01 0.000000000000000000e+00
Cu 4.138985128321356344e-01 9.360748511729267696e-01 0.000000000000000000e+00
Cu 5.835116132274539291e-01 2.139149125399901485e-02 0.000000000000000000e+00
Cu 5.767287613876999064e-01 1.212910996614644382e-01 0.000000000000000000e+00
Cu 5.696857348656289011e-01 2.218217612162806385e-01 0.000000000000000000e+00
Cu 5.625033466232640667e-01 3.230605683172637632e-01 0.000000000000000000e+00
Cu 5.552531629283742332e-01 4.250085032568900467e-01 0.000000000000000000e+00
Cu 5.479653911598927341e-01 5.276264538566668438e-01 0.000000000000000000e+00
Cu 5.406576061094211516e-01 6.309013631469453376e-01 0.000000000000000000e+00
Cu 5.333086744699966353e-01 7.348387712920823045e-01 0.000000000000000000e+00
Cu 5.257514580091803280e-01 8.393908279031295772e-01 0.000000000000000000e+00
Cu 5.176010051208188578e-01 9.444386372485359393e-01 0.000000000000000000e+00
Cu 6.986930929310851690e-01 2.954693224406504740e-02 0.000000000000000000e+00
Cu 6.903459522247945568e-01 1.296411103974980938e-01 0.000000000000000000e+00
Cu 6.816872751062150737e-01 2.304465798033935309e-01 0.000000000000000000e+00
Cu 6.729463988799468943e-01 3.320469356835586971e-01 0.000000000000000000e+00
Cu 6.642612712354597493e-01 4.343632160398605557e-01 0.000000000000000000e+00
Cu 6.556920125698232349e-01 5.372445292789551630e-01 0.000000000000000000e+00
Cu 6.472097877088331952e-01 6.405598781451241619e-01 0.000000000000000000e+00
Cu 6.387782400573019936e-01 7.444245158445156330e-01 0.000000000000000000e+00
Cu 6.303689098890427056e-01 8.489572467655410737e-01 0.000000000000000000e+00
Cu 6.217356335263065636e-01 9.539303336873611316e-01 0.000000000000000000e+00
Cu 8.131691139175231120e-01 3.941469727285099034e-02 0.000000000000000000e+00
Cu 8.030818142230030654e-01 1.396691443460984783e-01 0.000000000000000000e+00
Cu 7.926191073901311945e-01 2.406434036286350941e-01 0.000000000000000000e+00
Cu 7.821745087597294921e-01 3.425054524156004310e-01 0.000000000000000000e+00
Cu 7.721220129375797603e-01 4.451847417296423415e-01 0.000000000000000000e+00
Cu 7.625488044490887907e-01 5.482576402580077168e-01 0.000000000000000000e+00
Cu 7.533385076857888052e-01 6.515018893632654740e-01 0.000000000000000000e+00
Cu 7.439948472270984103e-01 7.548700185796554107e-01 0.000000000000000000e+00
Cu 7.347961883137416050e-01 8.589411486144902241e-01 0.000000000000000000e+00
Cu 7.266737343459271914e-01 9.632328474269912233e-01 0.000000000000000000e+00
Cu 9.267840793737140981e-01 5.119486702578711357e-02 0.000000000000000000e+00
Cu 9.148199510487549091e-01 1.516433314764301099e-01 0.000000000000000000e+00
Cu 9.024409643790675117e-01 2.526898059698870491e-01 0.000000000000000000e+00
Cu 8.900569810362514156e-01 3.544729028503005863e-01 0.000000000000000000e+00
Cu 8.785746257473536769e-01 4.572434390514184543e-01 0.000000000000000000e+00
Cu 8.687018720033450325e-01 5.603847926878234853e-01 0.000000000000000000e+00
Cu 8.592079902901427202e-01 6.631187136045387787e-01 0.000000000000000000e+00
Cu 8.491453036469137627e-01 7.667024067973754464e-01 0.000000000000000000e+00
Cu 1.716306422409878296e+00 7.465069791554296286e-01 0.000000000000000000e+00
Cu 1.703799563180862453e+00 8.507394014207571020e-01 0.000000000000000000e+00
Cu 1.039329860698828822e+00 6.509208441448008364e-02 0.000000000000000000e+00
Cu 1.025293352230412847e+00 1.657448944647958167e-01 0.000000000000000000e+00
Cu 1.011043976159372582e+00 2.670896144208010914e-01 0.000000000000000000e+00
Cu 9.967624350728575555e-01 3.685515283878581516e-01 0.000000000000000000e+00
Cu 9.835026967534692410e-01 4.703181147106436644e-01 0.000000000000000000e+00
Cu 9.749287558088540750e-01 5.720237923376024769e-01 0.000000000000000000e+00
Cu 9.649639494713005972e-01 6.752862879788331663e-01 0.000000000000000000e+00
Cu 1.839000366244790241e+00 6.559917275271105463e-01 0.000000000000000000e+00
Cu 1.824669407173262092e+00 7.589963697115816865e-01 0.000000000000000000e+00
Cu 1.813812526222065680e+00 8.607568721581714266e-01 0.000000000000000000e+00
Cu 1.150496411115677020e+00 8.122022282751061029e-02 0.000000000000000000e+00
Cu 1.134237677328738370e+00 1.822445578434795377e-01 0.000000000000000000e+00
Cu 1.117737021366483674e+00 2.837908378717921565e-01 0.000000000000000000e+00
Cu 1.101949422915718291e+00 3.864330953017857118e-01 0.000000000000000000e+00
Cu 2.000140505065417518e+00 3.602199082441703837e-01 0.000000000000000000e+00
Cu 1.976088514684017028e+00 4.622905956605258271e-01 0.000000000000000000e+00
Cu 1.964525591645155833e+00 5.664051222927921625e-01 0.000000000000000000e+00
Cu 1.948975978554448263e+00 6.684073033728620272e-01 0.000000000000000000e+00
Cu 1.937388835842056789e+00 7.691777909561484661e-01 0.000000000000000000e+00
Cu 1.928642955255675417e+00 8.688676398664095801e-01 0.000000000000000000e+00
Cu 1.260025074472428175e+00 9.992251380952622830e-02 0.000000000000000000e+00
Cu 1.241050259435039660e+00 2.010915237643387532e-01 0.000000000000000000e+00
Cu 1.222521230906439715e+00 3.035788251392136927e-01 0.000000000000000000e+00
Cu 2.128561086630039956e+00 2.768788573680737719e-01 0.000000000000000000e+00
Cu 2.107087298139885156e+00 3.788580563911629895e-01 0.000000000000000000e+00
Cu 2.092743362915976846e+00 4.793426219263716148e-01 0.000000000000000000e+00
Cu 2.075548025560216558e+00 5.783337925307958649e-01 0.000000000000000000e+00
Cu 2.063882054958715795e+00 6.783470984787127733e-01 0.000000000000000000e+00
Cu 2.054354668412167850e+00 7.768976982786395258e-01 0.000000000000000000e+00
Cu 2.047604311229779483e+00 8.746202826595580460e-01 0.000000000000000000e+00
Cu 1.367371843621154603e+00 1.211167805939777353e-01 0.000000000000000000e+00
Cu 1.345688509614723083e+00 2.230717972347339151e-01 0.000000000000000000e+00
Cu 2.260501953330213976e+00 1.956612754552950750e-01 0.000000000000000000e+00
Cu 2.238282662376089416e+00 2.957964265396842429e-01 0.000000000000000000e+00
Cu 2.221114369663130805e+00 3.943062622318804777e-01 0.000000000000000000e+00
Cu 2.206597820290794321e+00 4.922848289917474696e-01 0.000000000000000000e+00
Cu 2.193727213854461233e+00 5.896535466982957274e-01 0.000000000000000000e+00
Cu 2.183132889221584438e+00 6.860106807850124833e-01 0.000000000000000000e+00
Cu 2.175419213225972648e+00 7.823835481194277852e-01 0.000000000000000000e+00
Cu 2.170171167656342437e+00 8.782526859354081727e-01 0.000000000000000000e+00
Cu 1.472278866384185925e+00 1.462400614902826801e-01 0.000000000000000000e+00
Cu 2.393096685085968289e+00 1.165400582070179603e-01 0.000000000000000000e+00
Cu 2.371679096938044573e+00 2.155641603217541835e-01 0.000000000000000000e+00
Cu 2.354378713864737183e+00 3.124126510302127069e-01 0.000000000000000000e+00
Cu 2.339734002900488719e+00 4.079248393632409209e-01 0.000000000000000000e+00
Cu 2.327058296832706930e+00 5.029189864121241804e-01 0.000000000000000000e+00
Cu 2.316118453649014253e+00 5.975316177482608015e-01 0.000000000000000000e+00
Cu 2.307039604386471154e+00 6.918420125812663191e-01 0.000000000000000000e+00
Cu 2.300194279140757914e+00 7.860339259150094238e-01 0.000000000000000000e+00
Cu 2.295979941904096489e+00 8.802010785435433471e-01 0.000000000000000000e+00
Cu 2.523153449089050149e+00 3.755407814191775995e-02 0.000000000000000000e+00
Cu 2.505297229505014212e+00 1.362189381905242747e-01 0.000000000000000000e+00
Cu 2.489628702764633772e+00 2.319095247229433221e-01 0.000000000000000000e+00
Cu 2.475983679384615499e+00 3.258609655970452490e-01 0.000000000000000000e+00
Cu 2.463822444765817465e+00 4.188290648312696929e-01 0.000000000000000000e+00
Cu 2.452823679891548814e+00 5.112812579327035145e-01 0.000000000000000000e+00
Cu 2.443035554861697989e+00 6.035562061421432256e-01 0.000000000000000000e+00
Cu 2.434742247649337443e+00 6.958596466925551782e-01 0.000000000000000000e+00
Cu 2.428429035858675977e+00 7.883297671171216603e-01 0.000000000000000000e+00
Cu 2.424670466570542970e+00 8.809728399430890589e-01 0.000000000000000000e+00
Cu 2.635910507344628950e+00 5.381425717578687540e-02 0.000000000000000000e+00
Cu 2.624454021854924157e+00 1.503990860766589721e-01 0.000000000000000000e+00
Cu 2.613390622854183665e+00 2.441381097435866288e-01 0.000000000000000000e+00
Cu 2.602950111085303497e+00 3.360940397477084618e-01 0.000000000000000000e+00
Cu 2.592933099167219702e+00 4.271399296873636953e-01 0.000000000000000000e+00
Cu 2.583270610452692573e+00 5.177772691099123969e-01 0.000000000000000000e+00
Cu 2.574164018363734652e+00 6.082648783809966320e-01 0.000000000000000000e+00
Cu 2.566081587061701530e+00 6.988530821383162062e-01 0.000000000000000000e+00
Cu 2.559717511643232690e+00 7.897956371101069184e-01 0.000000000000000000e+00
Cu 2.555905911637379013e+00 8.811611082365178316e-01 0.000000000000000000e+00
Cu 2.756347289164848835e+00 6.625936878612624648e-02 0.000000000000000000e+00
Cu 2.749425092679439686e+00 1.606104648619836872e-01 0.000000000000000000e+00
Cu 2.742441609356576659e+00 2.527392588740056123e-01 0.000000000000000000e+00
Cu 2.734860638198204796e+00 3.433221428231256200e-01 0.000000000000000000e+00
Cu 2.726572294697394927e+00 4.332844718191055100e-01 0.000000000000000000e+00
Cu 2.717906235411988725e+00 5.229878246164875177e-01 0.000000000000000000e+00
Cu 2.709216710724394961e+00 6.123902032606368673e-01 0.000000000000000000e+00
Cu 2.700903295890094036e+00 7.016301028408696849e-01 0.000000000000000000e+00
Cu 2.693828847542057758e+00 7.912088118027882366e-01 0.000000000000000000e+00
Cu 2.689264673827270524e+00 8.814963024873273545e-01 0.000000000000000000e+00
Cu 2.882648441536989292e+00 7.517989570280186884e-02 0.000000000000000000e+00
Cu 2.880010315706078572e+00 1.675905178283482455e-01 0.000000000000000000e+00
Cu 2.876776853221976626e+00 2.581012487486102347e-01 0.000000000000000000e+00
Cu 2.871387020959444314e+00 3.479785191243208731e-01 0.000000000000000000e+00
Cu 2.864181099483298798e+00 4.378774461509932769e-01 0.000000000000000000e+00
Cu 2.856206567916719230e+00 5.275629206435145102e-01 0.000000000000000000e+00
Cu 2.847938247562420866e+00 6.168181153124396854e-01 0.000000000000000000e+00
Cu 2.839238319154120394e+00 7.052900215702069264e-01 0.000000000000000000e+00
Cu 2.830631146441166202e+00 7.935937576803102633e-01 0.000000000000000000e+00
Cu 2.824152990032232413e+00 8.830185983280214312e-01 0.000000000000000000e+00
Cu 3.012747054111453604e+00 7.931018732263267479e-02 0.000000000000000000e+00
Cu 3.016384651405386919e+00 1.703158468975989048e-01 0.000000000000000000e+00
Cu 3.016600405980146782e+00 2.600569567321891484e-01 0.000000000000000000e+00
Cu 3.011843641641429148e+00 3.509436599230352227e-01 0.000000000000000000e+00
Cu 3.005278283144282803e+00 4.417279439264180096e-01 0.000000000000000000e+00
Cu 2.997740527409003430e+00 5.321211267268280976e-01 0.000000000000000000e+00
Cu 2.989705888362472308e+00 6.220196227660055310e-01 0.000000000000000000e+00
Cu 2.981361649932228630e+00 7.113018765313640079e-01 0.000000000000000000e+00
Cu 2.970432521986023033e+00 7.987869707073794734e-01 0.000000000000000000e+00
Cu 2.959207030239474179e+00 8.875695524309300533e-01 0.000000000000000000e+00
Cu 3.141248513443967383e+00 7.039125932421200216e-02 0.000000000000000000e+00
Cu 3.160582785187482813e+00 1.655183828170839477e-01 0.000000000000000000e+00
Cu 3.159923873636803826e+00 2.603523288139240055e-01 0.000000000000000000e+00
Cu 3.155876081931219712e+00 3.537007742874921368e-01 0.000000000000000000e+00
Cu 3.149533282847506666e+00 4.458109334276930680e-01 0.000000000000000000e+00
Cu 3.142226293467270004e+00 5.370933568812984449e-01 0.000000000000000000e+00
Cu 3.134414899962742140e+00 6.279216757030442464e-01 0.000000000000000000e+00
Cu 3.125600227486122318e+00 7.188819175865162059e-01 0.000000000000000000e+00
Cu 3.115716212204336255e+00 8.108986795252526303e-01 0.000000000000000000e+00
Cu 3.088928238267372617e+00 9.028260014224469554e-01 0.000000000000000000e+00
