200

Cu 0.000000000000000000e+00 9.955522950953893391e-03 0.000000000000000000e+00
Cu 0.000000000000000000e+00 1.148715332725112753e-01 0.000000000000000000e+00
Cu 0.000000000000000000e+00 2.198422964365137622e-01 0.000000000000000000e+00
Cu 0.000000000000000000e+00 3.249017688462856879e-01 0.000000000000000000e+00
Cu 0.000000000000000000e+00 4.300590335123387065e-01 0.000000000000000000e+00
Cu 0.000000000000000000e+00 5.353103804181202907e-01 0.000000000000000000e+00
Cu 0.000000000000000000e+00 6.406496320912585807e-01 0.000000000000000000e+00
Cu 0.000000000000000000e+00 7.460714465107776139e-01 0.000000000000000000e+00
Cu 0.000000000000000000e+00 8.515672711039494747e-01 0.000000000000000000e+00
Cu 0.000000000000000000e+00 9.571165802126704314e-01 0.000000000000000000e+00
Cu 1.065389956947831729e-01 1.034162553259965374e-02 0.000000000000000000e+00
Cu 1.061973406997166330e-01 1.150674078359024133e-01 0.000000000000000000e+00
Cu 1.059439458968719494e-01 2.199924289674276834e-01 0.000000000000000000e+00
Cu 1.057017574354500583e-01 3.250459832296478391e-01 0.000000000000000000e+00
Cu 1.054661693160302283e-01 4.302082362451377651e-01 0.000000000000000000e+00
Cu 1.052348826448015612e-01 5.354681905003948472e-01 0.000000000000000000e+00
Cu 1.050040912662949244e-01 6.408167620445196500e-01 0.000000000000000000e+00
Cu 1.047670443398963369e-01 7.462505213348518129e-01 0.000000000000000000e+00
Cu 1.045115187981202065e-01 8.517843130768318893e-01 0.000000000000000000e+00
Cu 1.041576756976852897e-01 9.574944415892299165e-01 0.000000000000000000e+00
Cu 2.130325480933334681e-01 1.084283016231918188e-02 0.000000000000000000e+00
Cu 2.124409822015485838e-01 1.155796998085578953e-01 0.000000000000000000e+00
Cu 2.118949599669301409e-01 2.204694154469478973e-01 0.000000000000000000e+00
Cu 2.113935602684056947e-01 3.255149706575261037e-01 0.000000000000000000e+00
Cu 2.109156338084547944e-01 4.306869333204787487e-01 0.000000000000000000e+00
Cu 2.104529027715773548e-01 5.359649285694432219e-01 0.000000000000000000e+00
Cu 2.099946785570805663e-01 6.413349723585071160e-01 0.000000000000000000e+00
Cu 2.095215531288341371e-01 7.467938279896563225e-01 0.000000000000000000e+00
Cu 2.089941864778507019e-01 8.523596575657368390e-01 0.000000000000000000e+00
Cu 2.083865229694635279e-01 9.580408769706728611e-01 0.000000000000000000e+00
Cu 3.194834298828822527e-01 1.158757394239913127e-02 0.000000000000000000e+00
Cu 3.186398932331591660e-01 1.163412237127767063e-01 0.000000000000000000e+00
Cu 3.178281251309794664e-01 2.212435093080193094e-01 0.000000000000000000e+00
Cu 3.170598944184169765e-01 3.262941855192808549e-01 0.000000000000000000e+00
Cu 3.163342931417129633e-01 4.314810403275611828e-01 0.000000000000000000e+00
Cu 3.156417177240372074e-01 5.367821118977222916e-01 0.000000000000000000e+00
Cu 3.149665531789938022e-01 6.421782612600253071e-01 0.000000000000000000e+00
Cu 3.142789384004205377e-01 7.476571323942337033e-01 0.000000000000000000e+00
Cu 3.135410149662922752e-01 8.532116155421969328e-01 0.000000000000000000e+00
Cu 3.127168058593024491e-01 9.588485420978901663e-01 0.000000000000000000e+00
Cu 4.258857730227342819e-01 1.258501434733252412e-02 0.000000000000000000e+00
Cu 4.247820164032394818e-01 1.173603296955992165e-01 0.000000000000000000e+00
Cu 4.237068637658661929e-01 2.222862681995430578e-01 0.000000000000000000e+00
Cu 4.226791437638441895e-01 3.273596144558338361e-01 0.000000000000000000e+00
Cu 4.217083878291753019e-01 4.325666384993649971e-01 0.000000000000000000e+00
Cu 4.207939815164507547e-01 5.378875294734373202e-01 0.000000000000000000e+00
Cu 4.199232271601169297e-01 6.432996904919049408e-01 0.000000000000000000e+00
Cu 4.190669931747682542e-01 7.487798204594199314e-01 0.000000000000000000e+00
Cu 4.181765859649931305e-01 8.543077197748921714e-01 0.000000000000000000e+00
Cu 4.171910472838181172e-01 9.598811350279415899e-01 0.000000000000000000e+00
Cu 5.322359731706606256e-01 1.384037128814425040e-02 0.000000000000000000e+00
Cu 5.308601270605832756e-01 1.186358808370302220e-01 0.000000000000000000e+00
Cu 5.295143533195821872e-01 2.235875899412453072e-01 0.000000000000000000e+00
Cu 5.282306258034208390e-01 3.286880726556883348e-01 0.000000000000000000e+00
Cu 5.270276947101062426e-01 4.339152781754532784e-01 0.000000000000000000e+00
Cu 5.259111415728661143e-01 5.392406217915217681e-01 0.000000000000000000e+00
Cu 5.248762943298459493e-01 6.446407112054911570e-01 0.000000000000000000e+00
Cu 5.238986147154043316e-01 7.500938786932610514e-01 0.000000000000000000e+00
Cu 5.229217828809872293e-01 8.555787561045653522e-01 0.000000000000000000e+00
Cu 5.218558345408044197e-01 9.610721386108737052e-01 0.000000000000000000e+00
Cu 6.385381776639653673e-01 1.536430416646510089e-02 0.000000000000000000e+00
Cu 6.368715965936782020e-01 1.201725609762760022e-01 0.000000000000000000e+00
Cu 6.352400701581205622e-01 2.251407730278049413e-01 0.000000000000000000e+00
Cu 6.337004728711277401e-01 3.302615684627667192e-01 0.000000000000000000e+00
Cu 6.322858846938019806e-01 4.354978097394427983e-01 0.000000000000000000e+00
Cu 6.310076532549889761e-01 5.408028363898297330e-01 0.000000000000000000e+00
Cu 6.298515038099561369e-01 6.461378042324015247e-01 0.000000000000000000e+00
Cu 6.287941222699038324e-01 7.515108550365754425e-01 0.000000000000000000e+00
Cu 6.277890831130904514e-01 8.569155519048519132e-01 0.000000000000000000e+00
Cu 6.267511874505794500e-01 9.623197253947473051e-01 0.000000000000000000e+00
Cu 7.447984706142136702e-01 1.718038021708295782e-02 0.000000000000000000e+00
Cu 7.428220143828607736e-01 1.219905150836069763e-01 0.000000000000000000e+00
Cu 7.408831960716586451e-01 2.269507384109090975e-01 0.000000000000000000e+00
Cu 7.390765704666585334e-01 3.320630458225155568e-01 0.000000000000000000e+00
Cu 7.374805031195015292e-01 4.372859869300450009e-01 0.000000000000000000e+00
Cu 7.361056664930826221e-01 5.425246444396147893e-01 0.000000000000000000e+00
Cu 7.349136786492894702e-01 6.477385376703935771e-01 0.000000000000000000e+00
Cu 7.337931132440549398e-01 7.529295515562661745e-01 0.000000000000000000e+00
Cu 7.327963527511033304e-01 8.581949563724582397e-01 0.000000000000000000e+00
Cu 7.319046158062360030e-01 9.634174317880617178e-01 0.000000000000000000e+00
Cu 8.510123676635394929e-01 1.931235739982116451e-02 0.000000000000000000e+00
Cu 8.487169889442373050e-01 1.241289912110040833e-01 0.000000000000000000e+00
Cu 8.464627113580533990e-01 2.290547592257006493e-01 0.000000000000000000e+00
Cu 8.443620081767094776e-01 3.340921491944362498e-01 0.000000000000000000e+00
Cu 8.425972145800474378e-01 4.392301763640446555e-01 0.000000000000000000e+00
Cu 8.412723773464299004e-01 5.443380484802018415e-01 0.000000000000000000e+00
Cu 8.401135966254216214e-01 6.493179061980212108e-01 0.000000000000000000e+00
Cu 8.389614743417702636e-01 7.544288049492847703e-01 0.000000000000000000e+00
Cu 3.265900096934832408e+00 6.837900981615741003e-01 0.000000000000000000e+00
Cu 3.243479149914051174e+00 7.860962067393656438e-01 0.000000000000000000e+00
Cu 9.571671017796370418e-01 2.179227065161182253e-02 0.000000000000000000e+00
Cu 9.545301004742475781e-01 1.266145941046898371e-01 0.000000000000000000e+00
Cu 9.519957391240987388e-01 2.315451944836123266e-01 0.000000000000000000e+00
Cu 9.496155457779025255e-01 3.364326373374352808e-01 0.000000000000000000e+00
Cu 9.476580130283290826e-01 4.412818807761180184e-01 0.000000000000000000e+00
Cu 9.466687808649304481e-01 5.459125518507883523e-01 0.000000000000000000e+00
Cu 9.454636707319151734e-01 6.508807951866855124e-01 0.000000000000000000e+00
Cu 3.397794360251897405e+00 6.063709478715314516e-01 0.000000000000000000e+00
Cu 3.373654565931724747e+00 7.069238884435093961e-01 0.000000000000000000e+00
Cu 3.353638117977276067e+00 8.062588768502152448e-01 0.000000000000000000e+00
Cu 1.063225681480570506e+00 2.463811999342330541e-02 0.000000000000000000e+00
Cu 1.060239482502087771e+00 1.295082108224520356e-01 0.000000000000000000e+00
Cu 1.057360739356917101e+00 2.344158581836803257e-01 0.000000000000000000e+00
Cu 1.054863343221939864e+00 3.394412906141304753e-01 0.000000000000000000e+00
Cu 3.585383170549305554e+00 3.294034155500065730e-01 0.000000000000000000e+00
Cu 3.551433948752452885e+00 4.280072626857989171e-01 0.000000000000000000e+00
Cu 3.532395207868307185e+00 5.300903414270959901e-01 0.000000000000000000e+00
Cu 3.507494287229291796e+00 6.291866869855933242e-01 0.000000000000000000e+00
Cu 3.487168635713198128e+00 7.272463871043968187e-01 0.000000000000000000e+00
Cu 3.470174960316449564e+00 8.243094560754932187e-01 0.000000000000000000e+00
Cu 1.169166353375198364e+00 2.793330008705765394e-02 0.000000000000000000e+00
Cu 1.165734736845162045e+00 1.328136705628255587e-01 0.000000000000000000e+00
Cu 1.162617630488903764e+00 2.378669289860213254e-01 0.000000000000000000e+00
Cu 3.721302820166963787e+00 2.581772491902254996e-01 0.000000000000000000e+00
Cu 3.690998985405252508e+00 3.573754517004509856e-01 0.000000000000000000e+00
Cu 3.669167755625634353e+00 4.553479454834425955e-01 0.000000000000000000e+00
Cu 3.643350453493349850e+00 5.511435251473605357e-01 0.000000000000000000e+00
Cu 3.623638615766822113e+00 6.486638221913961777e-01 0.000000000000000000e+00
Cu 3.606237513088748958e+00 7.444377097414698330e-01 0.000000000000000000e+00
Cu 3.592110681861200749e+00 8.393863481504466595e-01 0.000000000000000000e+00
Cu 1.274887836339732905e+00 3.166974359823659935e-02 0.000000000000000000e+00
Cu 1.271059595589650648e+00 1.367214006932466752e-01 0.000000000000000000e+00
Cu 3.860502760566577152e+00 1.888128608478801818e-01 0.000000000000000000e+00
Cu 3.830136674359168492e+00 2.860965994822993741e-01 0.000000000000000000e+00
Cu 3.805430523042856006e+00 3.817877599723447091e-01 0.000000000000000000e+00
Cu 3.783458003701256178e+00 4.770147979111145076e-01 0.000000000000000000e+00
Cu 3.763111429695917831e+00 5.716156889416467157e-01 0.000000000000000000e+00
Cu 3.745189654185824057e+00 6.650686829906454767e-01 0.000000000000000000e+00
Cu 3.730491978153373633e+00 7.586305365522626465e-01 0.000000000000000000e+00
Cu 3.718652020163263128e+00 8.516199886023001486e-01 0.000000000000000000e+00
Cu 1.380411850004380714e+00 3.617970578199262294e-02 0.000000000000000000e+00
Cu 3.999793562713012562e+00 1.208780735540139761e-01 0.000000000000000000e+00
Cu 3.971033684864417879e+00 2.171789303949767658e-01 0.000000000000000000e+00
Cu 3.946799676446732796e+00 3.111969957494041816e-01 0.000000000000000000e+00
Cu 3.925332578896832736e+00 4.037841716647055379e-01 0.000000000000000000e+00
Cu 3.905851839110390245e+00 4.958788595173351244e-01 0.000000000000000000e+00
Cu 3.888153777510400033e+00 5.875947492932057648e-01 0.000000000000000000e+00
Cu 3.872472575554537055e+00 6.789754472275043584e-01 0.000000000000000000e+00
Cu 3.859312805070130636e+00 7.702098029407083990e-01 0.000000000000000000e+00
Cu 3.849233339612887494e+00 8.614065058495968819e-01 0.000000000000000000e+00
Cu 4.135775720727833615e+00 5.187826407588219668e-02 0.000000000000000000e+00
Cu 4.111665598382079345e+00 1.482484119553360846e-01 0.000000000000000000e+00
Cu 4.089939806907103126e+00 2.412351753970638779e-01 0.000000000000000000e+00
Cu 4.070205873368466065e+00 3.322486578611504315e-01 0.000000000000000000e+00
Cu 4.051879671333686872e+00 4.222131194123889819e-01 0.000000000000000000e+00
Cu 4.034652837113167578e+00 5.116510378709882012e-01 0.000000000000000000e+00
Cu 4.018673358888579017e+00 6.009220769407606078e-01 0.000000000000000000e+00
Cu 4.004351310191813340e+00 6.902194503498788603e-01 0.000000000000000000e+00
Cu 3.992322749116164360e+00 7.796650847285689911e-01 0.000000000000000000e+00
Cu 3.983325334735607903e+00 8.692445677936424531e-01 0.000000000000000000e+00
Cu 4.248564909541070911e+00 7.457354592645698554e-02 0.000000000000000000e+00
Cu 4.232228047185249586e+00 1.690514538759586016e-01 0.000000000000000000e+00
Cu 4.216010531871712708e+00 2.600852057006230456e-01 0.000000000000000000e+00
Cu 4.200157950951053820e+00 3.490849000035463612e-01 0.000000000000000000e+00
Cu 4.184487859736903737e+00 4.370800145859028984e-01 0.000000000000000000e+00
Cu 4.169043372595968577e+00 5.246493975862988046e-01 0.000000000000000000e+00
Cu 4.154175523729088937e+00 6.120752534205292639e-01 0.000000000000000000e+00
Cu 4.140518958268705418e+00 6.996087390633165537e-01 0.000000000000000000e+00
Cu 4.128940491108325617e+00 7.874850555607645353e-01 0.000000000000000000e+00
Cu 4.120459693856332706e+00 8.757288049037276201e-01 0.000000000000000000e+00
Cu 4.370630826875915531e+00 9.259457378605183420e-02 0.000000000000000000e+00
Cu 4.359906061098622665e+00 1.847581759661836576e-01 0.000000000000000000e+00
Cu 4.348560499620806041e+00 2.742303804537789547e-01 0.000000000000000000e+00
Cu 4.336098659810525113e+00 3.618882039561257535e-01 0.000000000000000000e+00
Cu 4.322533480705032183e+00 4.488146856922710648e-01 0.000000000000000000e+00
Cu 4.308391519791799240e+00 5.354526978205692567e-01 0.000000000000000000e+00
Cu 4.294235838474732780e+00 6.217795223250800474e-01 0.000000000000000000e+00
Cu 4.280676017266928035e+00 7.079449505231001361e-01 0.000000000000000000e+00
Cu 4.268785559649158401e+00 7.944441352892547270e-01 0.000000000000000000e+00
Cu 4.260064716496728465e+00 8.815840190479972138e-01 0.000000000000000000e+00
Cu 4.499951468075286343e+00 1.061400727466455668e-01 0.000000000000000000e+00
Cu 4.494386143718246629e+00 1.962386149484778020e-01 0.000000000000000000e+00
Cu 4.487466139303010415e+00 2.841271301555158835e-01 0.000000000000000000e+00
Cu 4.477613445254678304e+00 3.711642068198188205e-01 0.000000000000000000e+00
Cu 4.465355250332672554e+00 4.581110809986553289e-01 0.000000000000000000e+00
Cu 4.452077535530953867e+00 5.447755619099526880e-01 0.000000000000000000e+00
Cu 4.438527458787759450e+00 6.309868682909444138e-01 0.000000000000000000e+00
Cu 4.424738174371903199e+00 7.163494828153740279e-01 0.000000000000000000e+00
Cu 4.411567602640923624e+00 8.015583085894879556e-01 0.000000000000000000e+00
Cu 4.401363047091744640e+00 8.878558665838448549e-01 0.000000000000000000e+00
Cu 4.634279573868410829e+00 1.137890877654814115e-01 0.000000000000000000e+00
Cu 4.635786179671989693e+00 2.024582514047727766e-01 0.000000000000000000e+00
Cu 4.633013810615453032e+00 2.896535817663372647e-01 0.000000000000000000e+00
Cu 4.623894135612821366e+00 3.779244953099248350e-01 0.000000000000000000e+00
Cu 4.612410059290646736e+00 4.659311188754892696e-01 0.000000000000000000e+00
Cu 4.599644572698006861e+00 5.533929144561595681e-01 0.000000000000000000e+00
Cu 4.586343097718314610e+00 6.402402970503094926e-01 0.000000000000000000e+00
Cu 4.573071932538024242e+00 7.264635375373056370e-01 0.000000000000000000e+00
Cu 4.557378902910896201e+00 8.106230484889433985e-01 0.000000000000000000e+00
Cu 4.542679669598357783e+00 8.963683861175070211e-01 0.000000000000000000e+00
Cu 4.767216854939102966e+00 1.064969425269784858e-01 0.000000000000000000e+00
Cu 4.787035198060746843e+00 1.998320281961179778e-01 0.000000000000000000e+00
Cu 4.782865296368796315e+00 2.927749881550155697e-01 0.000000000000000000e+00
Cu 4.774592679529012784e+00 3.839290164579542419e-01 0.000000000000000000e+00
Cu 4.763294740528705162e+00 4.734733554328052763e-01 0.000000000000000000e+00
Cu 4.750762451833307587e+00 5.619088270863259460e-01 0.000000000000000000e+00
Cu 4.737732424984866242e+00 6.496713115058481147e-01 0.000000000000000000e+00
Cu 4.723766493010809420e+00 7.374175175398683946e-01 0.000000000000000000e+00
Cu 4.709524893052896566e+00 8.264314337909270947e-01 0.000000000000000000e+00
Cu 4.676924860533717698e+00 9.147624704247812044e-01 0.000000000000000000e+00
