200

Cu 0.000000000000000000e+00 5.061523405128440234e-02 0.000000000000000000e+00
Cu 0.000000000000000000e+00 1.461282338294332961e-01 0.000000000000000000e+00
Cu 0.000000000000000000e+00 2.401990970161461958e-01 0.000000000000000000e+00
Cu 0.000000000000000000e+00 3.336194460652762150e-01 0.000000000000000000e+00
Cu 0.000000000000000000e+00 4.268133880994873230e-01 0.000000000000000000e+00
Cu 0.000000000000000000e+00 5.199989007889467274e-01 0.000000000000000000e+00
Cu 0.000000000000000000e+00 6.133532075100373016e-01 0.000000000000000000e+00
Cu 0.000000000000000000e+00 7.070722450972148909e-01 0.000000000000000000e+00
Cu 0.000000000000000000e+00 8.015351913544654927e-01 0.000000000000000000e+00
Cu 0.000000000000000000e+00 8.974605956101959769e-01 0.000000000000000000e+00
Cu 1.327881877817367329e-01 5.591230351902488210e-02 0.000000000000000000e+00
Cu 1.314257693832183715e-01 1.479598579862105578e-01 0.000000000000000000e+00
Cu 1.313857287637391624e-01 2.409661053823881627e-01 0.000000000000000000e+00
Cu 1.313271184822871196e-01 3.339878083418671983e-01 0.000000000000000000e+00
Cu 1.312233898604576732e-01 4.269411787935714631e-01 0.000000000000000000e+00
Cu 1.310595268361351984e-01 5.199268008291840770e-01 0.000000000000000000e+00
Cu 1.308489461370552220e-01 6.130502023584381011e-01 0.000000000000000000e+00
Cu 1.306277960293416029e-01 7.063911003523729581e-01 0.000000000000000000e+00
Cu 1.304363888265088200e-01 7.998392345836897732e-01 0.000000000000000000e+00
Cu 1.315818512053545108e-01 8.924452316408801877e-01 0.000000000000000000e+00
Cu 2.649469148711567912e-01 5.839895074246911899e-02 0.000000000000000000e+00
Cu 2.638249943003096454e-01 1.501978684805060082e-01 0.000000000000000000e+00
Cu 2.632182125346620438e-01 2.422999598765570306e-01 0.000000000000000000e+00
Cu 2.629722340313125351e-01 3.347485148971858782e-01 0.000000000000000000e+00
Cu 2.627052323347235929e-01 4.272965345465211673e-01 0.000000000000000000e+00
Cu 2.623680334989305640e-01 5.199149821369967173e-01 0.000000000000000000e+00
Cu 2.619940228501662083e-01 6.126309451883650281e-01 0.000000000000000000e+00
Cu 2.616749993352762704e-01 7.053971064315784911e-01 0.000000000000000000e+00
Cu 2.617913170192068262e-01 7.979641670831056910e-01 0.000000000000000000e+00
Cu 2.625014320783021216e-01 8.903618747475914308e-01 0.000000000000000000e+00
Cu 3.970058168743914595e-01 6.012445826159783235e-02 0.000000000000000000e+00
Cu 3.961065346968934420e-01 1.518803394410910279e-01 0.000000000000000000e+00
Cu 3.954416476609181608e-01 2.437377446135025605e-01 0.000000000000000000e+00
Cu 3.949936393478253871e-01 3.357577769817227664e-01 0.000000000000000000e+00
Cu 3.945750103695699895e-01 4.278713188970345027e-01 0.000000000000000000e+00
Cu 3.940520893892743848e-01 5.200205152797995334e-01 0.000000000000000000e+00
Cu 3.934994027095783942e-01 6.122483030252768854e-01 0.000000000000000000e+00
Cu 3.930944264520329079e-01 7.045302592511817341e-01 0.000000000000000000e+00
Cu 3.929823904569187398e-01 7.968439613995673687e-01 0.000000000000000000e+00
Cu 3.932173714780973217e-01 8.892470617835961377e-01 0.000000000000000000e+00
Cu 5.290645674556543332e-01 6.147966769616924204e-02 0.000000000000000000e+00
Cu 5.283437121999089436e-01 1.532147560440689782e-01 0.000000000000000000e+00
Cu 5.277660983393596128e-01 2.449970706807453880e-01 0.000000000000000000e+00
Cu 5.273099257227674697e-01 3.368374759047555456e-01 0.000000000000000000e+00
Cu 5.268863305136142205e-01 4.286819940031084131e-01 0.000000000000000000e+00
Cu 5.262163466891582875e-01 5.203647672017250869e-01 0.000000000000000000e+00
Cu 5.253529320008376580e-01 6.120510850774575351e-01 0.000000000000000000e+00
Cu 5.246064718467507992e-01 7.040270838001220222e-01 0.000000000000000000e+00
Cu 5.240509918074084394e-01 7.962993828186792911e-01 0.000000000000000000e+00
Cu 5.237265152240868638e-01 8.888008513669110044e-01 0.000000000000000000e+00
Cu 6.611659319644191957e-01 6.257697611428009177e-02 0.000000000000000000e+00
Cu 6.606002795557128771e-01 1.542852895713651418e-01 0.000000000000000000e+00
Cu 6.601433303219698123e-01 2.460386306061023709e-01 0.000000000000000000e+00
Cu 6.597951978112370774e-01 3.378391831506305509e-01 0.000000000000000000e+00
Cu 6.594610878454000291e-01 4.296239437176200271e-01 0.000000000000000000e+00
Cu 6.590759229524286722e-01 5.212492338317458174e-01 0.000000000000000000e+00
Cu 6.576728838399055199e-01 6.122011644932332519e-01 0.000000000000000000e+00
Cu 6.560683474224713319e-01 7.037188431099971053e-01 0.000000000000000000e+00
Cu 6.549309244264327479e-01 7.963327431469926498e-01 0.000000000000000000e+00
Cu 6.539233547327847340e-01 8.891982190642808703e-01 0.000000000000000000e+00
Cu 7.933507775516144278e-01 6.345196705883791866e-02 0.000000000000000000e+00
Cu 7.929212553518046880e-01 1.551138377213669706e-01 0.000000000000000000e+00
Cu 7.925848500021088761e-01 2.468361566083285552e-01 0.000000000000000000e+00
Cu 7.923423370436287749e-01 3.386350108644888834e-01 0.000000000000000000e+00
Cu 7.922153888283547385e-01 4.305075191784318300e-01 0.000000000000000000e+00
Cu 7.919404073856571857e-01 5.223509118669695805e-01 0.000000000000000000e+00
Cu 7.918962117617739382e-01 6.139772035279990048e-01 0.000000000000000000e+00
Cu 7.873178268158715909e-01 7.030226814638674826e-01 0.000000000000000000e+00
Cu 7.845695880600538352e-01 7.966529060119690309e-01 0.000000000000000000e+00
Cu 7.840970036374250718e-01 8.911221236595453510e-01 0.000000000000000000e+00
Cu 9.256667442545527535e-01 6.412235863680372516e-02 0.000000000000000000e+00
Cu 9.253574665303100355e-01 1.557092297343211640e-01 0.000000000000000000e+00
Cu 9.251165587253129541e-01 2.473663245279123513e-01 0.000000000000000000e+00
Cu 9.249786849957349899e-01 3.391268942717509671e-01 0.000000000000000000e+00
Cu 9.249127454747454458e-01 4.310318940379775365e-01 0.000000000000000000e+00
Cu 9.250991353574871123e-01 5.231575555013051604e-01 0.000000000000000000e+00
Cu 9.245727210302249199e-01 6.155698905761094464e-01 0.000000000000000000e+00
Cu 9.269620945080636609e-01 7.087183378390472521e-01 0.000000000000000000e+00
Cu 9.037684036360679185e-01 7.937248705431811935e-01 0.000000000000000000e+00
Cu 9.195376332609118686e-01 8.894141215135126233e-01 0.000000000000000000e+00
Cu 1.058168338568211908e+00 6.460952691994002739e-02 0.000000000000000000e+00
Cu 1.057961692019024236e+00 1.560887728979791500e-01 0.000000000000000000e+00
Cu 1.057808389077647515e+00 2.476304015739162756e-01 0.000000000000000000e+00
Cu 1.057731862932049349e+00 3.392619744958456085e-01 0.000000000000000000e+00
Cu 1.057807770153965210e+00 4.310250339816629195e-01 0.000000000000000000e+00
Cu 1.057874787443240372e+00 5.230013849964680883e-01 0.000000000000000000e+00
Cu 1.058893165209641385e+00 6.152623176300685559e-01 0.000000000000000000e+00
Cu 1.057172221679092861e+00 7.082916335139141095e-01 0.000000000000000000e+00
Cu 1.081106001683401541e+00 7.929494563930619133e-01 0.000000000000000000e+00
Cu 1.066247731058726167e+00 8.886594691630061993e-01 0.000000000000000000e+00
Cu 1.190905961586711470e+00 6.494478558970200044e-02 0.000000000000000000e+00
Cu 1.190791226602640585e+00 1.562867957662760487e-01 0.000000000000000000e+00
Cu 1.190721313918571722e+00 2.476612103832056544e-01 0.000000000000000000e+00
Cu 1.190749426284658963e+00 3.390644369945945980e-01 0.000000000000000000e+00
Cu 1.190891074967406649e+00 4.304942093437921224e-01 0.000000000000000000e+00
Cu 1.191429057677395154e+00 5.218693925757829088e-01 0.000000000000000000e+00
Cu 1.191956427824796494e+00 6.130373741605407156e-01 0.000000000000000000e+00
Cu 1.197210860966723356e+00 7.016212125241367836e-01 0.000000000000000000e+00
Cu 1.200779237879082029e+00 7.948171522145434098e-01 0.000000000000000000e+00
Cu 1.202209749364874902e+00 8.888895694007084014e-01 0.000000000000000000e+00
Cu 1.323917087550897875e+00 6.516941881572173301e-02 0.000000000000000000e+00
Cu 1.323886457861855437e+00 1.563555479702868345e-01 0.000000000000000000e+00
Cu 1.323924473836564530e+00 2.475250234980588826e-01 0.000000000000000000e+00
Cu 1.324073072256287231e+00 3.386366072551684203e-01 0.000000000000000000e+00
Cu 1.324446955844193585e+00 4.296278952740546497e-01 0.000000000000000000e+00
Cu 1.325103279583770721e+00 5.204077072664473613e-01 0.000000000000000000e+00
Cu 1.327001819114035364e+00 6.105317420052563948e-01 0.000000000000000000e+00
Cu 1.329306728418096162e+00 7.012875439923982324e-01 0.000000000000000000e+00
Cu 1.331330694061284126e+00 7.932190298755223967e-01 0.000000000000000000e+00
Cu 1.333322445060296957e+00 8.854457639256957391e-01 0.000000000000000000e+00
Cu 1.457211439690681454e+00 6.532956761916451638e-02 0.000000000000000000e+00
Cu 1.457268670052984438e+00 1.563592029039072018e-01 0.000000000000000000e+00
Cu 1.457439250632246219e+00 2.473151467125048741e-01 0.000000000000000000e+00
Cu 1.457764937528646332e+00 3.381245595422028294e-01 0.000000000000000000e+00
Cu 1.458299520818360007e+00 4.287397441295925926e-01 0.000000000000000000e+00
Cu 1.459268893392331901e+00 5.190973044369896483e-01 0.000000000000000000e+00
Cu 1.460609690513739567e+00 6.095059388458210492e-01 0.000000000000000000e+00
Cu 1.462049373968150823e+00 7.003608674345993546e-01 0.000000000000000000e+00
Cu 1.463518714073269944e+00 7.916835855490425011e-01 0.000000000000000000e+00
Cu 1.464930545562671105e+00 8.833309204922572544e-01 0.000000000000000000e+00
Cu 1.590763432570516445e+00 6.546297665161127100e-02 0.000000000000000000e+00
Cu 1.590925419391000295e+00 1.563586682939220873e-01 0.000000000000000000e+00
Cu 1.591271568030614869e+00 2.471225052329823202e-01 0.000000000000000000e+00
Cu 1.591783169808742127e+00 3.376759833938015043e-01 0.000000000000000000e+00
Cu 1.592478806198677432e+00 4.280083409542518313e-01 0.000000000000000000e+00
Cu 1.593341896574623551e+00 5.182502788657007420e-01 0.000000000000000000e+00
Cu 1.594288072190588323e+00 6.086380038208559773e-01 0.000000000000000000e+00
Cu 1.595264090988914418e+00 6.993429536743627217e-01 0.000000000000000000e+00
Cu 1.596264297465189941e+00 7.904093842246565638e-01 0.000000000000000000e+00
Cu 1.597245018865506072e+00 8.817644745326700395e-01 0.000000000000000000e+00
Cu 1.724504796954414276e+00 6.557759613984660840e-02 0.000000000000000000e+00
Cu 1.724818988431064515e+00 1.563837622920281056e-01 0.000000000000000000e+00
Cu 1.725399752920988128e+00 2.470003479595421492e-01 0.000000000000000000e+00
Cu 1.726139016817863192e+00 3.373532228077202877e-01 0.000000000000000000e+00
Cu 1.726926181527155268e+00 4.274940944893422801e-01 0.000000000000000000e+00
Cu 1.727658921715687468e+00 5.175856720356976082e-01 0.000000000000000000e+00
Cu 1.728288948434151040e+00 6.078268634870959142e-01 0.000000000000000000e+00
Cu 1.728846921656515656e+00 6.983693087039302139e-01 0.000000000000000000e+00
Cu 1.729408963615416406e+00 7.892675890296170227e-01 0.000000000000000000e+00
Cu 1.730051810442129856e+00 8.804437280741962413e-01 0.000000000000000000e+00
Cu 1.858324204282013614e+00 6.562304749517587632e-02 0.000000000000000000e+00
Cu 1.858888826396775107e+00 1.564024230528779646e-01 0.000000000000000000e+00
Cu 1.859815788465200237e+00 2.469199731379133900e-01 0.000000000000000000e+00
Cu 1.860858644581426136e+00 3.371221473504585897e-01 0.000000000000000000e+00
Cu 1.861779249028586936e+00 4.271018552390398182e-01 0.000000000000000000e+00
Cu 1.862408242243769996e+00 5.170329941100331173e-01 0.000000000000000000e+00
Cu 1.862712383997520149e+00 6.071071194580421881e-01 0.000000000000000000e+00
Cu 1.862801695034776994e+00 6.974871649716287703e-01 0.000000000000000000e+00
Cu 1.862871929385346625e+00 7.882523151687660379e-01 0.000000000000000000e+00
Cu 1.863142304963240292e+00 8.793320766624034279e-01 0.000000000000000000e+00
Cu 1.992059571967387477e+00 6.545901456395547546e-02 0.000000000000000000e+00
Cu 1.993065298399477436e+00 1.562881474261279269e-01 0.000000000000000000e+00
Cu 1.994533969022614484e+00 2.467414783387834321e-01 0.000000000000000000e+00
Cu 1.996021824580277437e+00 3.368293584286325970e-01 0.000000000000000000e+00
Cu 1.997151939821777411e+00 4.267299454420753757e-01 0.000000000000000000e+00
Cu 1.997703277117325538e+00 5.166101106048854863e-01 0.000000000000000000e+00
Cu 1.997648482531379388e+00 6.065880644258012655e-01 0.000000000000000000e+00
Cu 1.997158735382639438e+00 6.968223213620595713e-01 0.000000000000000000e+00
Cu 1.996572953326171795e+00 7.874768877336718598e-01 0.000000000000000000e+00
Cu 1.996308814595278758e+00 8.785444026374581439e-01 0.000000000000000000e+00
Cu 2.125466861351258174e+00 6.480795130866064124e-02 0.000000000000000000e+00
Cu 2.127284937514325680e+00 1.557777432536543716e-01 0.000000000000000000e+00
Cu 2.129630077397952626e+00 2.461637015723760757e-01 0.000000000000000000e+00
Cu 2.131719307183980394e+00 3.362029932022945200e-01 0.000000000000000000e+00
Cu 2.133065605120036512e+00 4.262534830387091356e-01 0.000000000000000000e+00
Cu 2.133562744169919423e+00 5.163890841691666234e-01 0.000000000000000000e+00
Cu 2.133185520265942436e+00 6.064994793615162694e-01 0.000000000000000000e+00
Cu 2.131993688703373913e+00 6.966520340937558675e-01 0.000000000000000000e+00
Cu 2.130440261115815304e+00 7.871929491610036855e-01 0.000000000000000000e+00
Cu 2.129286043540141282e+00 8.783454554127450020e-01 0.000000000000000000e+00
Cu 2.258105751341512590e+00 6.313302898562579701e-02 0.000000000000000000e+00
Cu 2.261554326965333317e+00 1.543516142739629615e-01 0.000000000000000000e+00
Cu 2.265311013648112048e+00 2.446195262924707736e-01 0.000000000000000000e+00
Cu 2.267975345238835150e+00 3.348947080778287289e-01 0.000000000000000000e+00
Cu 2.269380846665293827e+00 4.255846843538204638e-01 0.000000000000000000e+00
Cu 2.269844362520012648e+00 5.164151588941234827e-01 0.000000000000000000e+00
Cu 2.269341005879371487e+00 6.071535057574770633e-01 0.000000000000000000e+00
Cu 2.267507647306644003e+00 6.975195880313795893e-01 0.000000000000000000e+00
Cu 2.264473399017809641e+00 7.879075201401245510e-01 0.000000000000000000e+00
Cu 2.261622622314198860e+00 8.792627678773718980e-01 0.000000000000000000e+00
Cu 2.388925222457563446e+00 5.914303368835382296e-02 0.000000000000000000e+00
Cu 2.396274595901287885e+00 1.507257205369202102e-01 0.000000000000000000e+00
Cu 2.401833472858736052e+00 2.412786748621375821e-01 0.000000000000000000e+00
Cu 2.404455805804995183e+00 3.328828390650339641e-01 0.000000000000000000e+00
Cu 2.405893385489505931e+00 4.247263133870348706e-01 0.000000000000000000e+00
Cu 2.406338635808744630e+00 5.166431807240586815e-01 0.000000000000000000e+00
Cu 2.405768962052868609e+00 6.085371257114882138e-01 0.000000000000000000e+00
Cu 2.403945031061045956e+00 7.002295297920563266e-01 0.000000000000000000e+00
Cu 2.399071081839080577e+00 7.908967530802994972e-01 0.000000000000000000e+00
Cu 2.392265534612195488e+00 8.825879515454498891e-01 0.000000000000000000e+00
Cu 2.514296775967796993e+00 4.649635592394295996e-02 0.000000000000000000e+00
Cu 2.532914272993247895e+00 1.421288838098480889e-01 0.000000000000000000e+00
Cu 2.538018581118391737e+00 2.369307656241498306e-01 0.000000000000000000e+00
Cu 2.541016784699509756e+00 3.306421067852637341e-01 0.000000000000000000e+00
Cu 2.542457530727532777e+00 4.238211504818773512e-01 0.000000000000000000e+00
Cu 2.542893590457399711e+00 5.168855035628502348e-01 0.000000000000000000e+00
Cu 2.542304897827380561e+00 6.101318095863070834e-01 0.000000000000000000e+00
Cu 2.540100636632410147e+00 7.039656989407657717e-01 0.000000000000000000e+00
Cu 2.535688541898814208e+00 7.989114924100095827e-01 0.000000000000000000e+00
Cu 2.517620125135620057e+00 8.947062453307129681e-01 0.000000000000000000e+00
