200

Cu 0.000000000000000000e+00 3.573520387429581641e-02 0.000000000000000000e+00
Cu 0.000000000000000000e+00 1.298710369712166302e-01 0.000000000000000000e+00
Cu 0.000000000000000000e+00 2.221457525490083684e-01 0.000000000000000000e+00
Cu 0.000000000000000000e+00 3.138603273569783303e-01 0.000000000000000000e+00
Cu 0.000000000000000000e+00 4.058547311855206230e-01 0.000000000000000000e+00
Cu 0.000000000000000000e+00 4.986718011186210830e-01 0.000000000000000000e+00
Cu 0.000000000000000000e+00 5.927144848120748932e-01 0.000000000000000000e+00
Cu 0.000000000000000000e+00 6.882795479553217577e-01 0.000000000000000000e+00
Cu 0.000000000000000000e+00 7.856376533121303130e-01 0.000000000000000000e+00
Cu 0.000000000000000000e+00 8.850719361331307322e-01 0.000000000000000000e+00
Cu 1.338815298695981704e-01 4.083716143696108219e-02 0.000000000000000000e+00
Cu 1.319510963693428240e-01 1.313844306722187216e-01 0.000000000000000000e+00
Cu 1.309056046840485488e-01 2.225394200047465798e-01 0.000000000000000000e+00
Cu 1.295284615996810662e-01 3.138636583181537709e-01 0.000000000000000000e+00
Cu 1.278843202375811727e-01 4.056871279282471265e-01 0.000000000000000000e+00
Cu 1.260234231970870922e-01 4.984346589109239223e-01 0.000000000000000000e+00
Cu 1.240264441468558465e-01 5.924496027292862621e-01 0.000000000000000000e+00
Cu 1.220036063318120645e-01 6.879584138572990559e-01 0.000000000000000000e+00
Cu 1.201181462735080585e-01 7.849452688180322824e-01 0.000000000000000000e+00
Cu 1.193787330708738076e-01 8.827327120207434374e-01 0.000000000000000000e+00
Cu 2.671992211539599427e-01 4.353360820809260706e-02 0.000000000000000000e+00
Cu 2.647647079078821464e-01 1.338475843814924127e-01 0.000000000000000000e+00
Cu 2.620383627036818597e-01 2.241819349409986395e-01 0.000000000000000000e+00
Cu 2.590655311045141351e-01 3.150831321720268807e-01 0.000000000000000000e+00
Cu 2.556303202276881126e-01 4.067300881715598115e-01 0.000000000000000000e+00
Cu 2.518155510375354456e-01 4.994204105474381872e-01 0.000000000000000000e+00
Cu 2.477666742296345259e-01 5.934173668618423214e-01 0.000000000000000000e+00
Cu 2.437103162799552636e-01 6.888532098285754524e-01 0.000000000000000000e+00
Cu 2.401070525818259638e-01 7.856533718589577830e-01 0.000000000000000000e+00
Cu 2.373051897728717663e-01 8.838846871688560425e-01 0.000000000000000000e+00
Cu 4.002572756076677174e-01 4.609448665985228094e-02 0.000000000000000000e+00
Cu 3.971079360549372161e-01 1.365176357963752141e-01 0.000000000000000000e+00
Cu 3.930514939268086594e-01 2.268180437261987370e-01 0.000000000000000000e+00
Cu 3.883058067384864698e-01 3.175676560856702246e-01 0.000000000000000000e+00
Cu 3.829384481425954778e-01 4.091721887394185742e-01 0.000000000000000000e+00
Cu 3.770326851803617041e-01 5.019155794462945019e-01 0.000000000000000000e+00
Cu 3.708029821456444441e-01 5.960305032026744776e-01 0.000000000000000000e+00
Cu 3.645615897006380113e-01 6.916382146353216021e-01 0.000000000000000000e+00
Cu 3.586400425114580903e-01 7.888453059769955367e-01 0.000000000000000000e+00
Cu 3.533197649518313721e-01 8.878192548697477759e-01 0.000000000000000000e+00
Cu 5.328771163936730781e-01 4.920600650963950773e-02 0.000000000000000000e+00
Cu 5.287599429685697627e-01 1.399146218974583189e-01 0.000000000000000000e+00
Cu 5.233234000145716713e-01 2.305027173137480512e-01 0.000000000000000000e+00
Cu 5.168030249054688108e-01 3.214953035660505498e-01 0.000000000000000000e+00
Cu 5.093683623678336714e-01 4.133390658600991086e-01 0.000000000000000000e+00
Cu 5.011902305994243578e-01 5.063764336124593202e-01 0.000000000000000000e+00
Cu 4.925425809083180395e-01 6.008812910568372967e-01 0.000000000000000000e+00
Cu 4.837658420183389429e-01 6.970477289787919695e-01 0.000000000000000000e+00
Cu 4.751289832163251847e-01 7.949803119226557246e-01 0.000000000000000000e+00
Cu 4.668514414262143197e-01 8.948557969655934752e-01 0.000000000000000000e+00
Cu 6.647715681325353509e-01 5.333302161382545009e-02 0.000000000000000000e+00
Cu 6.594366340572567209e-01 1.445025453241707003e-01 0.000000000000000000e+00
Cu 6.524387095970729522e-01 2.356333746463210588e-01 0.000000000000000000e+00
Cu 6.440008963269346909e-01 3.272235913930888751e-01 0.000000000000000000e+00
Cu 6.343384631314169519e-01 4.197092875769067311e-01 0.000000000000000000e+00
Cu 6.236695513891296061e-01 5.134153060411451586e-01 0.000000000000000000e+00
Cu 6.122774095932788097e-01 6.086154243960849586e-01 0.000000000000000000e+00
Cu 6.005984326878045509e-01 7.056243597887937868e-01 0.000000000000000000e+00
Cu 5.890069232239901753e-01 8.045761355366655154e-01 0.000000000000000000e+00
Cu 5.775121166974399589e-01 9.054254366549888688e-01 0.000000000000000000e+00
Cu 7.956265204762111853e-01 5.890878216190142957e-02 0.000000000000000000e+00
Cu 7.887786590963458133e-01 1.507392627574972999e-01 0.000000000000000000e+00
Cu 7.799189167915633325e-01 2.426949115334487983e-01 0.000000000000000000e+00
Cu 7.692876521440249471e-01 3.352645334269327981e-01 0.000000000000000000e+00
Cu 7.571375596429293919e-01 4.288489497842999931e-01 0.000000000000000000e+00
Cu 7.437290801963613029e-01 5.237037725137166921e-01 0.000000000000000000e+00
Cu 7.293663970094355076e-01 6.199427086385026486e-01 0.000000000000000000e+00
Cu 7.144170285124835651e-01 7.177594411760707116e-01 0.000000000000000000e+00
Cu 6.996267868906401732e-01 8.177735376435116832e-01 0.000000000000000000e+00
Cu 6.853718629808146501e-01 9.197121882584454733e-01 0.000000000000000000e+00
Cu 9.250578045271125038e-01 6.644924954942801887e-02 0.000000000000000000e+00
Cu 9.162631842154524975e-01 1.591909613219278097e-01 0.000000000000000000e+00
Cu 9.051611547336912977e-01 2.522535907523598686e-01 0.000000000000000000e+00
Cu 8.919294510015262079e-01 3.461095162771874456e-01 0.000000000000000000e+00
Cu 8.769115605158753768e-01 4.412475622443107759e-01 0.000000000000000000e+00
Cu 8.604877074361902967e-01 5.377602138789867592e-01 0.000000000000000000e+00
Cu 8.431334417595217623e-01 6.354767192245214247e-01 0.000000000000000000e+00
Cu 8.250640412506139443e-01 7.341893977081973555e-01 0.000000000000000000e+00
Cu 8.065239524783069935e-01 8.341409851994070479e-01 0.000000000000000000e+00
Cu 7.915536600963227754e-01 9.359397015659596253e-01 0.000000000000000000e+00
Cu 1.052470872190640838e+00 7.658587907570536812e-02 0.000000000000000000e+00
Cu 1.041234380194014264e+00 1.704367894889668444e-01 0.000000000000000000e+00
Cu 1.027545976219480073e+00 2.649256279432589678e-01 0.000000000000000000e+00
Cu 1.011154171797960855e+00 3.602198814350953682e-01 0.000000000000000000e+00
Cu 9.925788395321665236e-01 4.571667065956399600e-01 0.000000000000000000e+00
Cu 9.729863894981580774e-01 5.558122031387556783e-01 0.000000000000000000e+00
Cu 9.529068592197967869e-01 6.551945108289586317e-01 0.000000000000000000e+00
Cu 9.318644701362827076e-01 7.556278842682131458e-01 0.000000000000000000e+00
Cu 1.424240933387959762e+00 7.901962749218204296e-01 0.000000000000000000e+00
Cu 1.418198795450029914e+00 8.947057804969769101e-01 0.000000000000000000e+00
Cu 1.177123028345269828e+00 8.962096531992636006e-02 0.000000000000000000e+00
Cu 1.163108482905337970e+00 1.848447558639096655e-01 0.000000000000000000e+00
Cu 1.146232853601477863e+00 2.810457869527026031e-01 0.000000000000000000e+00
Cu 1.126350263547706509e+00 3.785181567816534032e-01 0.000000000000000000e+00
Cu 1.102870945432331329e+00 4.768879292040815177e-01 0.000000000000000000e+00
Cu 1.080396509202284694e+00 5.771800723802327227e-01 0.000000000000000000e+00
Cu 1.059049022204147983e+00 6.783691046323320206e-01 0.000000000000000000e+00
Cu 1.540695986924609961e+00 6.936050717650565911e-01 0.000000000000000000e+00
Cu 1.533289405095254576e+00 7.968268168725068934e-01 0.000000000000000000e+00
Cu 1.528663048973667449e+00 8.985822588407891276e-01 0.000000000000000000e+00
Cu 1.298431351229013098e+00 1.056224874409399800e-01 0.000000000000000000e+00
Cu 1.281086740382482825e+00 2.024725915305374269e-01 0.000000000000000000e+00
Cu 1.260470120165313901e+00 3.008296931529028662e-01 0.000000000000000000e+00
Cu 1.235824390053030797e+00 4.007845132890701101e-01 0.000000000000000000e+00
Cu 1.676985486998012087e+00 3.927164412045826003e-01 0.000000000000000000e+00
Cu 1.660179168074644274e+00 4.953968094797570054e-01 0.000000000000000000e+00
Cu 1.659227996455231002e+00 5.984069228285089359e-01 0.000000000000000000e+00
Cu 1.651193086246712571e+00 7.000783675610778856e-01 0.000000000000000000e+00
Cu 1.646406711496145592e+00 8.005294160524981661e-01 0.000000000000000000e+00
Cu 1.643982413351357641e+00 9.001749714186547680e-01 0.000000000000000000e+00
Cu 1.415753058056718805e+00 1.250850027777541118e-01 0.000000000000000000e+00
Cu 1.394505954516430002e+00 2.235485148946189660e-01 0.000000000000000000e+00
Cu 1.369254298962587546e+00 3.237466000405299638e-01 0.000000000000000000e+00
Cu 1.799230015862464560e+00 3.012459289000983254e-01 0.000000000000000000e+00
Cu 1.785220995010236233e+00 4.038867737001262115e-01 0.000000000000000000e+00
Cu 1.779643508021113707e+00 5.038336066812749703e-01 0.000000000000000000e+00
Cu 1.770256593118129551e+00 6.027141103212698692e-01 0.000000000000000000e+00
Cu 1.766302547917059984e+00 7.027328098870836426e-01 0.000000000000000000e+00
Cu 1.763570698976204554e+00 8.011716881189953066e-01 0.000000000000000000e+00
Cu 1.763142476369512268e+00 8.988278040096167043e-01 0.000000000000000000e+00
Cu 1.528503031868643225e+00 1.478748762339923972e-01 0.000000000000000000e+00
Cu 1.502626150791817050e+00 2.478932662627528483e-01 0.000000000000000000e+00
Cu 1.925480223818656356e+00 2.122691925072632824e-01 0.000000000000000000e+00
Cu 1.910198993268770407e+00 3.131753037040022059e-01 0.000000000000000000e+00
Cu 1.900619565748181472e+00 4.115824286717220115e-01 0.000000000000000000e+00
Cu 1.893996386435587986e+00 5.093102786428673756e-01 0.000000000000000000e+00
Cu 1.888758192737019392e+00 6.065199594797536786e-01 0.000000000000000000e+00
Cu 1.885357040194949541e+00 7.027487508725966947e-01 0.000000000000000000e+00
Cu 1.884410547058445129e+00 7.990742382002897770e-01 0.000000000000000000e+00
Cu 1.885451402573525170e+00 8.949679605510740821e-01 0.000000000000000000e+00
Cu 1.635969162749145500e+00 1.748300900304336492e-01 0.000000000000000000e+00
Cu 2.052786667562141787e+00 1.259230987964496951e-01 0.000000000000000000e+00
Cu 2.037841450001088628e+00 2.256391698373440002e-01 0.000000000000000000e+00
Cu 2.027435506544876809e+00 3.225714605448393169e-01 0.000000000000000000e+00
Cu 2.020070076734945541e+00 4.178664403744113964e-01 0.000000000000000000e+00
Cu 2.014780603497028366e+00 5.125330319047841643e-01 0.000000000000000000e+00
Cu 2.011097136460456181e+00 6.068579026170451973e-01 0.000000000000000000e+00
Cu 2.008935809991661436e+00 7.009662632026580908e-01 0.000000000000000000e+00
Cu 2.008599219639982891e+00 7.950723415471070421e-01 0.000000000000000000e+00
Cu 2.010477966831739849e+00 8.893378466512797953e-01 0.000000000000000000e+00
Cu 2.177944665476124531e+00 3.988893136982486071e-02 0.000000000000000000e+00
Cu 2.166072799452992026e+00 1.391622064130244862e-01 0.000000000000000000e+00
Cu 2.156725037406690859e+00 2.350770972557095773e-01 0.000000000000000000e+00
Cu 2.149805879471360370e+00 3.289395232399067726e-01 0.000000000000000000e+00
Cu 2.144596522974623110e+00 4.215813541562958844e-01 0.000000000000000000e+00
Cu 2.140632862546584914e+00 5.136561214432917577e-01 0.000000000000000000e+00
Cu 2.137775245475161956e+00 6.055881286711356504e-01 0.000000000000000000e+00
Cu 2.136100941610487691e+00 6.976261085053250266e-01 0.000000000000000000e+00
Cu 2.135989354268581941e+00 7.899915900795825285e-01 0.000000000000000000e+00
Cu 2.137954580494113355e+00 8.828088764924227894e-01 0.000000000000000000e+00
Cu 2.291562802514662600e+00 4.984420712577215112e-02 0.000000000000000000e+00
Cu 2.285934166814901580e+00 1.466786800339765218e-01 0.000000000000000000e+00
Cu 2.280977414082616672e+00 2.404884764440013700e-01 0.000000000000000000e+00
Cu 2.277070486202605881e+00 3.322901393913507140e-01 0.000000000000000000e+00
Cu 2.273776245046828404e+00 4.230062978124860540e-01 0.000000000000000000e+00
Cu 2.270905294585020773e+00 5.132510385067258207e-01 0.000000000000000000e+00
Cu 2.268498196631135944e+00 6.033840546983677555e-01 0.000000000000000000e+00
Cu 2.266757650891595866e+00 6.937073072295113496e-01 0.000000000000000000e+00
Cu 2.266238915226969741e+00 7.845740708685638998e-01 0.000000000000000000e+00
Cu 2.267698793853926809e+00 8.762004307827198080e-01 0.000000000000000000e+00
Cu 2.412626081097168473e+00 5.592038519574567268e-02 0.000000000000000000e+00
Cu 2.411096915745497782e+00 1.504273218005114376e-01 0.000000000000000000e+00
Cu 2.410048672993757801e+00 2.425696225529453132e-01 0.000000000000000000e+00
Cu 2.408818383049624146e+00 3.329678965892657327e-01 0.000000000000000000e+00
Cu 2.407133208051347228e+00 4.226435730526441059e-01 0.000000000000000000e+00
Cu 2.405145602954025019e+00 5.119773367967282995e-01 0.000000000000000000e+00
Cu 2.402990502945772544e+00 6.010493965298361330e-01 0.000000000000000000e+00
Cu 2.400793409013277202e+00 6.900995965022722611e-01 0.000000000000000000e+00
Cu 2.399205131812067737e+00 7.797022305135914433e-01 0.000000000000000000e+00
Cu 2.399433806911401845e+00 8.703505742390200695e-01 0.000000000000000000e+00
Cu 2.539158017503737153e+00 5.885158144802268149e-02 0.000000000000000000e+00
Cu 2.541405962825427522e+00 1.513345869312111569e-01 0.000000000000000000e+00
Cu 2.543847718183186224e+00 2.417939943267130021e-01 0.000000000000000000e+00
Cu 2.544723721936141825e+00 3.315161033867427554e-01 0.000000000000000000e+00
Cu 2.544132995187588620e+00 4.211447006301659579e-01 0.000000000000000000e+00
Cu 2.542848409283085864e+00 5.105048106618278458e-01 0.000000000000000000e+00
Cu 2.541041172390204217e+00 5.995115762708216334e-01 0.000000000000000000e+00
Cu 2.538275035641980537e+00 6.879452581093553620e-01 0.000000000000000000e+00
Cu 2.534843109368984937e+00 7.764475653466608174e-01 0.000000000000000000e+00
Cu 2.532711226335359722e+00 8.663522278826706335e-01 0.000000000000000000e+00
Cu 2.668913420696173766e+00 5.772726879331167849e-02 0.000000000000000000e+00
Cu 2.676944104444084260e+00 1.486858180465887025e-01 0.000000000000000000e+00
Cu 2.682599816984951868e+00 2.382088316023180385e-01 0.000000000000000000e+00
Cu 2.684178422815553411e+00 3.288309615565518373e-01 0.000000000000000000e+00
Cu 2.684347935046597300e+00 4.192962271468387292e-01 0.000000000000000000e+00
Cu 2.683574449060396550e+00 5.094433082582048300e-01 0.000000000000000000e+00
Cu 2.682000047002061294e+00 5.992872026617576120e-01 0.000000000000000000e+00
Cu 2.679493893125505899e+00 6.887379806483976408e-01 0.000000000000000000e+00
Cu 2.673589256543977832e+00 7.767234654677327432e-01 0.000000000000000000e+00
Cu 2.666351920730031910e+00 8.661272858343412873e-01 0.000000000000000000e+00
Cu 2.796178725885563487e+00 4.492723154077744169e-02 0.000000000000000000e+00
Cu 2.819449180061798010e+00 1.392897590655558793e-01 0.000000000000000000e+00
Cu 2.824553308921485151e+00 2.335320454204347640e-01 0.000000000000000000e+00
Cu 2.827008243491273998e+00 3.262668979569531835e-01 0.000000000000000000e+00
Cu 2.827518029769698682e+00 4.179696928866383776e-01 0.000000000000000000e+00
Cu 2.827023529969669102e+00 5.091417139494905930e-01 0.000000000000000000e+00
Cu 2.825667836490076468e+00 6.002160556927347290e-01 0.000000000000000000e+00
Cu 2.822723224771601203e+00 6.917676935441583463e-01 0.000000000000000000e+00
Cu 2.817864711350085205e+00 7.845116784202387228e-01 0.000000000000000000e+00
Cu 2.795505989409893033e+00 8.776616572390010251e-01 0.000000000000000000e+00
