200

Cu 0.000000000000000000e+00 9.157422555305516979e-03 0.000000000000000000e+00
Cu 0.000000000000000000e+00 1.125833559739432971e-01 0.000000000000000000e+00
Cu 0.000000000000000000e+00 2.157549338538105599e-01 0.000000000000000000e+00
Cu 0.000000000000000000e+00 3.188239953732793230e-01 0.000000000000000000e+00
Cu 0.000000000000000000e+00 4.218683289608954334e-01 0.000000000000000000e+00
Cu 0.000000000000000000e+00 5.249208663122814089e-01 0.000000000000000000e+00
Cu 0.000000000000000000e+00 6.280050563861373503e-01 0.000000000000000000e+00
Cu 0.000000000000000000e+00 7.311496520678617550e-01 0.000000000000000000e+00
Cu 0.000000000000000000e+00 8.344228147071542923e-01 0.000000000000000000e+00
Cu 0.000000000000000000e+00 9.379604855281645781e-01 0.000000000000000000e+00
Cu 1.108522760145068675e-01 1.039642212537718671e-02 0.000000000000000000e+00
Cu 1.104179444130168330e-01 1.130102080205273446e-01 0.000000000000000000e+00
Cu 1.103551129535481623e-01 2.159380652772349418e-01 0.000000000000000000e+00
Cu 1.103146775620911929e-01 3.189149048275838338e-01 0.000000000000000000e+00
Cu 1.102743245198713057e-01 4.219021070747844271e-01 0.000000000000000000e+00
Cu 1.102318267114031913e-01 5.249071340978198608e-01 0.000000000000000000e+00
Cu 1.101889541324460875e-01 6.279377881475709522e-01 0.000000000000000000e+00
Cu 1.101512152256978461e-01 7.309964104311332811e-01 0.000000000000000000e+00
Cu 1.101422111187029818e-01 8.340412114538070520e-01 0.000000000000000000e+00
Cu 1.104914518537938595e-01 9.368185994802488148e-01 0.000000000000000000e+00
Cu 2.215540379355087353e-01 1.102356314514797882e-02 0.000000000000000000e+00
Cu 2.211279322919265933e-01 1.136135654680399537e-01 0.000000000000000000e+00
Cu 2.208700886137487940e-01 2.163044392852890296e-01 0.000000000000000000e+00
Cu 2.207420180301125079e-01 3.191266639809706707e-01 0.000000000000000000e+00
Cu 2.206414763363312714e-01 4.220032995217508076e-01 0.000000000000000000e+00
Cu 2.205522334213199931e-01 5.249108551907031295e-01 0.000000000000000000e+00
Cu 2.204818238443982392e-01 6.278368150058775132e-01 0.000000000000000000e+00
Cu 2.204526570143530706e-01 7.307466214822327943e-01 0.000000000000000000e+00
Cu 2.205580509609920137e-01 8.335630618408133019e-01 0.000000000000000000e+00
Cu 2.208321256214946793e-01 9.363194245949864047e-01 0.000000000000000000e+00
Cu 3.322521721192638888e-01 1.156446964193237267e-02 0.000000000000000000e+00
Cu 3.318478381925842324e-01 1.141265356749289750e-01 0.000000000000000000e+00
Cu 3.315406175869333172e-01 2.167472180089134448e-01 0.000000000000000000e+00
Cu 3.313275379505684071e-01 3.194364993460963031e-01 0.000000000000000000e+00
Cu 3.311634256664560128e-01 4.221747848185974927e-01 0.000000000000000000e+00
Cu 3.310191166522624129e-01 5.249402521501377317e-01 0.000000000000000000e+00
Cu 3.309205714753787331e-01 6.277263577399321282e-01 0.000000000000000000e+00
Cu 3.309056643923348195e-01 7.305001438287150872e-01 0.000000000000000000e+00
Cu 3.309853598632669369e-01 8.332415792340227556e-01 0.000000000000000000e+00
Cu 3.311559778381579777e-01 9.359732942487867247e-01 0.000000000000000000e+00
Cu 4.430113261673978564e-01 1.208223581819678136e-02 0.000000000000000000e+00
Cu 4.426152419267118110e-01 1.146060109158322932e-01 0.000000000000000000e+00
Cu 4.423017644527127423e-01 2.171794818825804607e-01 0.000000000000000000e+00
Cu 4.420667910416853363e-01 3.197950797988128313e-01 0.000000000000000000e+00
Cu 4.418825130004398472e-01 4.224253495108576395e-01 0.000000000000000000e+00
Cu 4.416881584759564383e-01 5.250241285306600503e-01 0.000000000000000000e+00
Cu 4.415145215260962153e-01 6.276398507283731387e-01 0.000000000000000000e+00
Cu 4.414473441156541722e-01 7.303211834860290352e-01 0.000000000000000000e+00
Cu 4.414610392957367124e-01 8.330349813137222226e-01 0.000000000000000000e+00
Cu 4.415116137015001607e-01 9.357456613167465242e-01 0.000000000000000000e+00
Cu 5.538715256582706914e-01 1.260238935543864930e-02 0.000000000000000000e+00
Cu 5.534736333148689846e-01 1.150684932082066403e-01 0.000000000000000000e+00
Cu 5.531607449217041950e-01 2.175889321571494173e-01 0.000000000000000000e+00
Cu 5.529338646124426493e-01 3.201520184006197978e-01 0.000000000000000000e+00
Cu 5.527755410951472603e-01 4.227279971637948330e-01 0.000000000000000000e+00
Cu 5.526362150799007944e-01 5.252527995359763668e-01 0.000000000000000000e+00
Cu 5.523241237265594794e-01 6.276121139851000841e-01 0.000000000000000000e+00
Cu 5.520386304671270894e-01 7.301533835971946163e-01 0.000000000000000000e+00
Cu 5.519775198986598408e-01 8.329400909420137111e-01 0.000000000000000000e+00
Cu 5.519318318794738110e-01 9.357089023180182874e-01 0.000000000000000000e+00
Cu 6.648729888527837861e-01 1.313551089732568553e-02 0.000000000000000000e+00
Cu 6.644634794130267474e-01 1.155226144408297295e-01 0.000000000000000000e+00
Cu 6.641443901352819257e-01 2.179708934073603943e-01 0.000000000000000000e+00
Cu 6.639232843104274640e-01 3.204728843627719370e-01 0.000000000000000000e+00
Cu 6.638019917332090847e-01 4.230140955581744855e-01 0.000000000000000000e+00
Cu 6.637435649222988010e-01 5.255563981282415087e-01 0.000000000000000000e+00
Cu 6.636868490393355025e-01 6.279926977311685032e-01 0.000000000000000000e+00
Cu 6.627561123850509439e-01 7.298224195173541595e-01 0.000000000000000000e+00
Cu 6.621481287899954049e-01 8.328722720142417435e-01 0.000000000000000000e+00
Cu 6.626359963804210329e-01 9.359270087496265322e-01 0.000000000000000000e+00
Cu 7.760571521468289102e-01 1.369222451035093970e-02 0.000000000000000000e+00
Cu 7.756262217589642294e-01 1.159778492833843239e-01 0.000000000000000000e+00
Cu 7.752903581448146175e-01 2.183285987396589023e-01 0.000000000000000000e+00
Cu 7.750621149203374971e-01 3.207404218722538780e-01 0.000000000000000000e+00
Cu 7.749487505860582770e-01 4.232123419054998892e-01 0.000000000000000000e+00
Cu 7.749610463996107201e-01 5.257506530132859401e-01 0.000000000000000000e+00
Cu 7.750041202012808439e-01 6.283657204711415867e-01 0.000000000000000000e+00
Cu 7.753000588249017166e-01 7.310536410487266101e-01 0.000000000000000000e+00
Cu 7.704599241551751687e-01 8.318811479868772896e-01 0.000000000000000000e+00
Cu 7.745823245009421099e-01 9.350854532842133304e-01 0.000000000000000000e+00
Cu 8.874647772884899366e-01 1.428502589601716478e-02 0.000000000000000000e+00
Cu 8.870041562471626673e-01 1.164470798501509169e-01 0.000000000000000000e+00
Cu 8.866448815730754163e-01 2.186723093589096056e-01 0.000000000000000000e+00
Cu 8.864006273135500713e-01 3.209541776431293902e-01 0.000000000000000000e+00
Cu 8.862861939160228131e-01 4.232918254418872595e-01 0.000000000000000000e+00
Cu 8.863023822285377440e-01 5.256931486880582760e-01 0.000000000000000000e+00
Cu 8.865415791617596852e-01 6.281708923403883649e-01 0.000000000000000000e+00
Cu 8.867607601273808093e-01 7.307187586933939771e-01 0.000000000000000000e+00
Cu 8.923233469087732406e-01 8.313525520710640659e-01 0.000000000000000000e+00
Cu 8.890587971316075144e-01 9.344427683921534555e-01 0.000000000000000000e+00
Cu 9.991328565076024182e-01 1.492707958482087857e-02 0.000000000000000000e+00
Cu 9.986384366459822859e-01 1.169453633889475097e-01 0.000000000000000000e+00
Cu 9.982570744408428842e-01 2.190164792055996623e-01 0.000000000000000000e+00
Cu 9.980046222300208436e-01 3.211245381146687894e-01 0.000000000000000000e+00
Cu 9.978996520201856013e-01 4.232554328572596947e-01 0.000000000000000000e+00
Cu 9.979903845997667444e-01 5.253784090173664323e-01 0.000000000000000000e+00
Cu 9.983324741077448383e-01 6.273955336301247909e-01 0.000000000000000000e+00
Cu 9.997859262857876628e-01 7.288086690925607014e-01 0.000000000000000000e+00
Cu 1.001120615799912406e+00 8.314571072133245533e-01 0.000000000000000000e+00
Cu 1.001547151589058382e+00 9.341225556626251425e-01 0.000000000000000000e+00
Cu 1.111090901328138925e+00 1.563023026053432518e-02 0.000000000000000000e+00
Cu 1.110565427918851933e+00 1.174885740042053012e-01 0.000000000000000000e+00
Cu 1.110174425701992984e+00 2.193792090366577241e-01 0.000000000000000000e+00
Cu 1.109933451178404029e+00 3.212728272586780065e-01 0.000000000000000000e+00
Cu 1.109874025693025290e+00 4.231406562807721872e-01 0.000000000000000000e+00
Cu 1.110051065108369928e+00 5.249379749719477184e-01 0.000000000000000000e+00
Cu 1.110652987176260265e+00 6.265775721920030517e-01 0.000000000000000000e+00
Cu 1.111466489508221800e+00 7.284272718044466632e-01 0.000000000000000000e+00
Cu 1.112275223868388396e+00 8.305561476744456328e-01 0.000000000000000000e+00
Cu 1.113266806420389443e+00 9.326774167072771071e-01 0.000000000000000000e+00
Cu 1.223356119781225049e+00 1.640237589586874753e-02 0.000000000000000000e+00
Cu 1.222812471160004133e+00 1.180917283749253061e-01 0.000000000000000000e+00
Cu 1.222435569880912176e+00 2.197828522090949643e-01 0.000000000000000000e+00
Cu 1.222233358687078164e+00 3.214349657247068115e-01 0.000000000000000000e+00
Cu 1.222228591110792184e+00 4.230239069112278760e-01 0.000000000000000000e+00
Cu 1.222470418238096990e+00 5.245447468982821215e-01 0.000000000000000000e+00
Cu 1.222924359604424582e+00 6.261048421978264722e-01 0.000000000000000000e+00
Cu 1.223509726219369931e+00 7.277960900482620676e-01 0.000000000000000000e+00
Cu 1.224250582570985735e+00 8.295882499456557202e-01 0.000000000000000000e+00
Cu 1.225181427965293057e+00 9.314120598381070426e-01 0.000000000000000000e+00
Cu 1.335928230242234838e+00 1.724262328092681512e-02 0.000000000000000000e+00
Cu 1.335393508338491797e+00 1.187641369178046996e-01 0.000000000000000000e+00
Cu 1.335067612814835325e+00 2.202486464527581289e-01 0.000000000000000000e+00
Cu 1.334931936713536604e+00 3.216510830568213852e-01 0.000000000000000000e+00
Cu 1.334977160900481463e+00 4.229694799327857191e-01 0.000000000000000000e+00
Cu 1.335182803039723254e+00 5.242619148363256709e-01 0.000000000000000000e+00
Cu 1.335519672076964426e+00 6.256117903316896767e-01 0.000000000000000000e+00
Cu 1.335992010539897912e+00 7.270655765924641800e-01 0.000000000000000000e+00
Cu 1.336635899373151082e+00 8.286207220239368842e-01 0.000000000000000000e+00
Cu 1.337471949274342098e+00 9.302455259876625249e-01 0.000000000000000000e+00
Cu 1.448785548218687769e+00 1.813266429438257360e-02 0.000000000000000000e+00
Cu 1.448307844180597881e+00 1.194986059508429954e-01 0.000000000000000000e+00
Cu 1.448088108989588063e+00 2.207806279476727529e-01 0.000000000000000000e+00
Cu 1.448060518054276491e+00 3.219355377782443517e-01 0.000000000000000000e+00
Cu 1.448157750537851340e+00 4.229857599933682377e-01 0.000000000000000000e+00
Cu 1.448326056334767964e+00 5.240069397898029502e-01 0.000000000000000000e+00
Cu 1.448554832918505619e+00 6.250886564267271739e-01 0.000000000000000000e+00
Cu 1.448884858559325028e+00 7.262944153582899798e-01 0.000000000000000000e+00
Cu 1.449381684222744271e+00 8.276425387897585750e-01 0.000000000000000000e+00
Cu 1.450109190974237627e+00 9.290946354876618019e-01 0.000000000000000000e+00
Cu 1.561883755859461376e+00 1.902438901196708623e-02 0.000000000000000000e+00
Cu 1.561543516718180591e+00 1.202556231108357909e-01 0.000000000000000000e+00
Cu 1.561515199401796616e+00 2.213422663614783292e-01 0.000000000000000000e+00
Cu 1.561664881831046348e+00 3.222528833120389957e-01 0.000000000000000000e+00
Cu 1.561857666045483484e+00 4.230324106435127129e-01 0.000000000000000000e+00
Cu 1.562000316457215821e+00 5.237722068970682709e-01 0.000000000000000000e+00
Cu 1.562087951834795430e+00 6.245757451199577259e-01 0.000000000000000000e+00
Cu 1.562204210145829553e+00 7.255298133562709806e-01 0.000000000000000000e+00
Cu 1.562476254416943933e+00 8.266749587177668612e-01 0.000000000000000000e+00
Cu 1.563033832009587787e+00 9.279774679149656036e-01 0.000000000000000000e+00
Cu 1.675154831541905587e+00 1.982425649931694039e-02 0.000000000000000000e+00
Cu 1.675086606403497713e+00 1.209452089532688929e-01 0.000000000000000000e+00
Cu 1.675380243720429263e+00 2.218337218426988944e-01 0.000000000000000000e+00
Cu 1.675802684912248486e+00 3.225051068534298127e-01 0.000000000000000000e+00
Cu 1.676139807756670708e+00 4.230585954799786497e-01 0.000000000000000000e+00
Cu 1.676264643409611121e+00 5.235872578588584014e-01 0.000000000000000000e+00
Cu 1.676173387446070695e+00 6.241587920641223919e-01 0.000000000000000000e+00
Cu 1.675985425498919934e+00 7.248644361005497361e-01 0.000000000000000000e+00
Cu 1.675908141528180018e+00 8.258001421988747648e-01 0.000000000000000000e+00
Cu 1.676169891469640350e+00 9.269774465490924209e-01 0.000000000000000000e+00
Cu 1.788497598877166084e+00 2.036832688832147450e-02 0.000000000000000000e+00
Cu 1.788939893456076735e+00 1.214000693385713925e-01 0.000000000000000000e+00
Cu 1.789748999331819856e+00 2.220643886461113881e-01 0.000000000000000000e+00
Cu 1.790520627964548472e+00 3.225287833086590839e-01 0.000000000000000000e+00
Cu 1.790993971032552867e+00 4.229977045825609738e-01 0.000000000000000000e+00
Cu 1.791106509278391767e+00 5.235054210976984868e-01 0.000000000000000000e+00
Cu 1.790854576195892944e+00 6.239879485931150160e-01 0.000000000000000000e+00
Cu 1.790293814341153533e+00 7.244783459758673549e-01 0.000000000000000000e+00
Cu 1.789679620772253621e+00 8.251786062550028333e-01 0.000000000000000000e+00
Cu 1.789412443225135041e+00 9.262527469379776557e-01 0.000000000000000000e+00
Cu 1.901740089996952321e+00 2.035135777579549776e-02 0.000000000000000000e+00
Cu 1.903173778190660137e+00 1.213033691994703650e-01 0.000000000000000000e+00
Cu 1.904743055156978615e+00 2.217090417377861333e-01 0.000000000000000000e+00
Cu 1.905794551984349106e+00 3.221456802571986411e-01 0.000000000000000000e+00
Cu 1.906298945292262959e+00 4.228090024870707064e-01 0.000000000000000000e+00
Cu 1.906403540669100005e+00 5.235561120259686341e-01 0.000000000000000000e+00
Cu 1.906104758952538392e+00 6.242302095459278943e-01 0.000000000000000000e+00
Cu 1.905248467371061905e+00 7.246871127351768305e-01 0.000000000000000000e+00
Cu 1.903858651532540192e+00 8.251200245692064117e-01 0.000000000000000000e+00
Cu 1.902586414180244878e+00 9.261029535725007200e-01 0.000000000000000000e+00
Cu 2.014537770705118191e+00 1.907013945420283837e-02 0.000000000000000000e+00
Cu 2.018077428102818871e+00 1.199256340832178941e-01 0.000000000000000000e+00
Cu 2.020383610690844822e+00 2.204015881814256339e-01 0.000000000000000000e+00
Cu 2.021411401110778439e+00 3.213723563990357190e-01 0.000000000000000000e+00
Cu 2.021882581534797829e+00 4.225162902745984161e-01 0.000000000000000000e+00
Cu 2.021982400184322071e+00 5.237049058761716891e-01 0.000000000000000000e+00
Cu 2.021707680530447693e+00 6.248590326409815265e-01 0.000000000000000000e+00
Cu 2.020866747028268406e+00 7.258482011094842257e-01 0.000000000000000000e+00
Cu 2.018731615055022743e+00 8.263476374143493564e-01 0.000000000000000000e+00
Cu 2.015344235883407720e+00 9.272267792074186943e-01 0.000000000000000000e+00
Cu 2.126095065492594305e+00 1.343974213011435263e-02 0.000000000000000000e+00
Cu 2.133811359046848821e+00 1.161808520572571723e-01 0.000000000000000000e+00
Cu 2.136089603030927098e+00 2.185305931298091031e-01 0.000000000000000000e+00
Cu 2.137173160546246731e+00 3.204748279829577884e-01 0.000000000000000000e+00
Cu 2.137645588556551068e+00 4.221981531653868358e-01 0.000000000000000000e+00
Cu 2.137742398204423910e+00 5.238631268920407313e-01 0.000000000000000000e+00
Cu 2.137461061222469816e+00 6.255987033078791448e-01 0.000000000000000000e+00
Cu 2.136561105722966758e+00 7.275650836872379346e-01 0.000000000000000000e+00
Cu 2.134453854384381177e+00 8.299418084471249513e-01 0.000000000000000000e+00
Cu 2.126891286280436333e+00 9.327102920885008697e-01 0.000000000000000000e+00
