200

Cu 0.000000000000000000e+00 5.076451311127889131e-03 0.000000000000000000e+00
Cu 0.000000000000000000e+00 1.095725960306781904e-01 0.000000000000000000e+00
Cu 0.000000000000000000e+00 2.141711952979579170e-01 0.000000000000000000e+00
Cu 0.000000000000000000e+00 3.189474502624206065e-01 0.000000000000000000e+00
Cu 0.000000000000000000e+00 4.239245596349834333e-01 0.000000000000000000e+00
Cu 0.000000000000000000e+00 5.290985029661617878e-01 0.000000000000000000e+00
Cu 0.000000000000000000e+00 6.344599368868910627e-01 0.000000000000000000e+00
Cu 0.000000000000000000e+00 7.400010916053085808e-01 0.000000000000000000e+00
Cu 0.000000000000000000e+00 8.457074163055871008e-01 0.000000000000000000e+00
Cu 0.000000000000000000e+00 9.515385957259961947e-01 0.000000000000000000e+00
Cu 1.080080705148289827e-01 5.898492497039691494e-03 0.000000000000000000e+00
Cu 1.072971142914357773e-01 1.099888040315607773e-01 0.000000000000000000e+00
Cu 1.067709150487856501e-01 2.144882061928207462e-01 0.000000000000000000e+00
Cu 1.062658200641372341e-01 3.192504576769796265e-01 0.000000000000000000e+00
Cu 1.057721839190789437e-01 4.242370393021112629e-01 0.000000000000000000e+00
Cu 1.052850614716448474e-01 5.294283511925887975e-01 0.000000000000000000e+00
Cu 1.047965578817762478e-01 6.348087267653936827e-01 0.000000000000000000e+00
Cu 1.042928296318937076e-01 7.403740755210870272e-01 0.000000000000000000e+00
Cu 1.037486830268934263e-01 8.461578541727847735e-01 0.000000000000000000e+00
Cu 1.029991834181461507e-01 9.523207500170692841e-01 0.000000000000000000e+00
Cu 2.159169692190562595e-01 6.960156869017976831e-03 0.000000000000000000e+00
Cu 2.146898201460161193e-01 1.110696231911412202e-01 0.000000000000000000e+00
Cu 2.135546733108337758e-01 2.154917180684623457e-01 0.000000000000000000e+00
Cu 2.125085720132395273e-01 3.202351331253798228e-01 0.000000000000000000e+00
Cu 2.115066506654365852e-01 4.252409300638404499e-01 0.000000000000000000e+00
Cu 2.105315909043938838e-01 5.304695356903202930e-01 0.000000000000000000e+00
Cu 2.095612700327305067e-01 6.358946393592483926e-01 0.000000000000000000e+00
Cu 2.085555983119330437e-01 7.415119661811643281e-01 0.000000000000000000e+00
Cu 2.074332489715923211e-01 8.473612329564469414e-01 0.000000000000000000e+00
Cu 2.061411317322908443e-01 9.534612781882663146e-01 0.000000000000000000e+00
Cu 3.237319264479138203e-01 8.530423084394684469e-03 0.000000000000000000e+00
Cu 3.219837477123118630e-01 1.126727135072296271e-01 0.000000000000000000e+00
Cu 3.202958993234829022e-01 2.171184106018280990e-01 0.000000000000000000e+00
Cu 3.186922477938213261e-01 3.218705302464636708e-01 0.000000000000000000e+00
Cu 3.171702619643385068e-01 4.269065021962793471e-01 0.000000000000000000e+00
Cu 3.157098764295004911e-01 5.321832980560458060e-01 0.000000000000000000e+00
Cu 3.142789963770439288e-01 6.376635495978522084e-01 0.000000000000000000e+00
Cu 3.128161315083992644e-01 7.433233942983114018e-01 0.000000000000000000e+00
Cu 3.112434659628796618e-01 8.491493044456204231e-01 0.000000000000000000e+00
Cu 3.094869596777611309e-01 9.551568292591594567e-01 0.000000000000000000e+00
Cu 4.314384532084058477e-01 1.063084958893842531e-02 0.000000000000000000e+00
Cu 4.291509363535842558e-01 1.148152061016531889e-01 0.000000000000000000e+00
Cu 4.269147604509213045e-01 2.193079657501182944e-01 0.000000000000000000e+00
Cu 4.247682232748466458e-01 3.241058584452926050e-01 0.000000000000000000e+00
Cu 4.227307230387817305e-01 4.291834740554420491e-01 0.000000000000000000e+00
Cu 4.208010347851406374e-01 5.345023582021383168e-01 0.000000000000000000e+00
Cu 4.189535484581324853e-01 6.400178648513864532e-01 0.000000000000000000e+00
Cu 4.171290245786033468e-01 7.456829991894894372e-01 0.000000000000000000e+00
Cu 4.152275117758554845e-01 8.514561373816373901e-01 0.000000000000000000e+00
Cu 4.131233548537144307e-01 9.573323211034659996e-01 0.000000000000000000e+00
Cu 5.390266249320539993e-01 1.327307409138537772e-02 0.000000000000000000e+00
Cu 5.361737731645128680e-01 1.174952663586767976e-01 0.000000000000000000e+00
Cu 5.333730277008168486e-01 2.220387950768580032e-01 0.000000000000000000e+00
Cu 5.306899802299905877e-01 3.268920607842965009e-01 0.000000000000000000e+00
Cu 5.281633734983440798e-01 4.320122873680778963e-01 0.000000000000000000e+00
Cu 5.258051954442929388e-01 5.373425598366365907e-01 0.000000000000000000e+00
Cu 5.236067891528159990e-01 6.428363307834882301e-01 0.000000000000000000e+00
Cu 5.215192696397954464e-01 7.484499285953175596e-01 0.000000000000000000e+00
Cu 5.194277203731209047e-01 8.541384808665608563e-01 0.000000000000000000e+00
Cu 5.171466935328832282e-01 9.598513819065035424e-01 0.000000000000000000e+00
Cu 6.465022300310576675e-01 1.648063569578056553e-02 0.000000000000000000e+00
Cu 6.430439674773008596e-01 1.207232550964050383e-01 0.000000000000000000e+00
Cu 6.396458112223194492e-01 2.252967306095985389e-01 0.000000000000000000e+00
Cu 6.364253420143519691e-01 3.301909849495675009e-01 0.000000000000000000e+00
Cu 6.334518954435349736e-01 4.353321216533546090e-01 0.000000000000000000e+00
Cu 6.307499854710878484e-01 5.406247062807940651e-01 0.000000000000000000e+00
Cu 6.282915849970170941e-01 6.459886219105880345e-01 0.000000000000000000e+00
Cu 6.260294600551987720e-01 7.514410974423463285e-01 0.000000000000000000e+00
Cu 6.238705763861062126e-01 8.569694226692906591e-01 0.000000000000000000e+00
Cu 6.216413675461411881e-01 9.625035866893782988e-01 0.000000000000000000e+00
Cu 7.538741450805661604e-01 2.030411800814810319e-02 0.000000000000000000e+00
Cu 7.497697894514633310e-01 1.245425897429301848e-01 0.000000000000000000e+00
Cu 7.457283965520136171e-01 2.290922892860477178e-01 0.000000000000000000e+00
Cu 7.419459658854977713e-01 3.339663554986379568e-01 0.000000000000000000e+00
Cu 7.385880001766350622e-01 4.390839841115240505e-01 0.000000000000000000e+00
Cu 7.356797998765682856e-01 5.442473123184665695e-01 0.000000000000000000e+00
Cu 7.331426164929972789e-01 6.493687801394365522e-01 0.000000000000000000e+00
Cu 7.307452934330550542e-01 7.544490394586209625e-01 0.000000000000000000e+00
Cu 7.285945975099843430e-01 8.596932153322707215e-01 0.000000000000000000e+00
Cu 7.266702712098900285e-01 9.648559778487412197e-01 0.000000000000000000e+00
Cu 8.611285456604890198e-01 2.479431116061210638e-02 0.000000000000000000e+00
Cu 8.563580573341128543e-01 1.290363947498011366e-01 0.000000000000000000e+00
Cu 8.516569293487523673e-01 2.335060129873986201e-01 0.000000000000000000e+00
Cu 8.472553521357750750e-01 3.382171202681826250e-01 0.000000000000000000e+00
Cu 8.435387428901942597e-01 4.431639339802685429e-01 0.000000000000000000e+00
Cu 8.407342239519983718e-01 5.480712010788064692e-01 0.000000000000000000e+00
Cu 8.382690700585158083e-01 6.527173867536090190e-01 0.000000000000000000e+00
Cu 8.357996150065416519e-01 7.576409843351544771e-01 0.000000000000000000e+00
Cu 2.624060274264939263e+00 6.928721982393294399e-01 0.000000000000000000e+00
Cu 2.603097084119915472e+00 7.955337683731739107e-01 0.000000000000000000e+00
Cu 9.682333435660045451e-01 3.001731203948071469e-02 0.000000000000000000e+00
Cu 9.627488152953614930e-01 1.342596292107204325e-01 0.000000000000000000e+00
Cu 9.574587041817742561e-01 2.387320746878425770e-01 0.000000000000000000e+00
Cu 9.524741219977228557e-01 3.431276085806289067e-01 0.000000000000000000e+00
Cu 9.483450392684270591e-01 4.474699670192377465e-01 0.000000000000000000e+00
Cu 9.462616531563726729e-01 5.514089781009771096e-01 0.000000000000000000e+00
Cu 9.436948343687733276e-01 6.560430183556904549e-01 0.000000000000000000e+00
Cu 2.754403581795957123e+00 6.133955152347393414e-01 0.000000000000000000e+00
Cu 2.731788084437948960e+00 7.144512286067410400e-01 0.000000000000000000e+00
Cu 2.713028689479754174e+00 8.143128872717501077e-01 0.000000000000000000e+00
Cu 1.075106800865395007e+00 3.600909847766419619e-02 0.000000000000000000e+00
Cu 1.068888914846543692e+00 1.403353264104315601e-01 0.000000000000000000e+00
Cu 1.062877401162506619e+00 2.447515295160671567e-01 0.000000000000000000e+00
Cu 1.057627806311928431e+00 3.494417475822039210e-01 0.000000000000000000e+00
Cu 2.937283964174651540e+00 3.331548208179511139e-01 0.000000000000000000e+00
Cu 2.905248934526285076e+00 4.325172654810366946e-01 0.000000000000000000e+00
Cu 2.887315045296985794e+00 5.349658769565597272e-01 0.000000000000000000e+00
Cu 2.863938357150418668e+00 6.346947847835046064e-01 0.000000000000000000e+00
Cu 2.844849171631833151e+00 7.333758928628063556e-01 0.000000000000000000e+00
Cu 2.828902923106267231e+00 8.310813148079647661e-01 0.000000000000000000e+00
Cu 1.181694424508188179e+00 4.293734291636436273e-02 0.000000000000000000e+00
Cu 1.174545860336968062e+00 1.472635978374166599e-01 0.000000000000000000e+00
Cu 1.168016649604320722e+00 2.519748910137795117e-01 0.000000000000000000e+00
Cu 3.071712204966206894e+00 2.597286053671457595e-01 0.000000000000000000e+00
Cu 3.043039478986412583e+00 3.595509401761975976e-01 0.000000000000000000e+00
Cu 3.022348997215849931e+00 4.581083471613428548e-01 0.000000000000000000e+00
Cu 2.997999860517623905e+00 5.547074101679208002e-01 0.000000000000000000e+00
Cu 2.979442737515978212e+00 6.528622970311750429e-01 0.000000000000000000e+00
Cu 2.963088362860076597e+00 7.493663547513113032e-01 0.000000000000000000e+00
Cu 2.949820664744434051e+00 8.450513510791055616e-01 0.000000000000000000e+00
Cu 1.287783259125057533e+00 5.078029770396527004e-02 0.000000000000000000e+00
Cu 1.279789057783340622e+00 1.554343662860264708e-01 0.000000000000000000e+00
Cu 3.209322801230718891e+00 1.881687816650631506e-01 0.000000000000000000e+00
Cu 3.180470845743982533e+00 2.861445249124907608e-01 0.000000000000000000e+00
Cu 3.156994190459452287e+00 3.825560042302925678e-01 0.000000000000000000e+00
Cu 3.136175483328968117e+00 4.785259528751192315e-01 0.000000000000000000e+00
Cu 3.116929640864753548e+00 5.738947737092362500e-01 0.000000000000000000e+00
Cu 3.100022513484935960e+00 6.681820127987240232e-01 0.000000000000000000e+00
Cu 3.086183290912806410e+00 7.625527240790128669e-01 0.000000000000000000e+00
Cu 3.075059876535874537e+00 8.563608554812114360e-01 0.000000000000000000e+00
Cu 1.393381348745384773e+00 6.021079013642380295e-02 0.000000000000000000e+00
Cu 3.347092679557616801e+00 1.181129714218454724e-01 0.000000000000000000e+00
Cu 3.319655060725259066e+00 2.151193017261203988e-01 0.000000000000000000e+00
Cu 3.296528683191149334e+00 3.099173509660672066e-01 0.000000000000000000e+00
Cu 3.276091841427541507e+00 4.033527046866298704e-01 0.000000000000000000e+00
Cu 3.257589613073183621e+00 4.963070039279600665e-01 0.000000000000000000e+00
Cu 3.240821743077411554e+00 5.889003889337500741e-01 0.000000000000000000e+00
Cu 3.225995163174218305e+00 6.811763858407083871e-01 0.000000000000000000e+00
Cu 3.213582099137981096e+00 7.733101137342009990e-01 0.000000000000000000e+00
Cu 3.204098846182425131e+00 8.653927130040575122e-01 0.000000000000000000e+00
Cu 3.481780040475536797e+00 4.719897637547549457e-02 0.000000000000000000e+00
Cu 3.458635276680182447e+00 1.442226515744968462e-01 0.000000000000000000e+00
Cu 3.437789015657856773e+00 2.380215531770133175e-01 0.000000000000000000e+00
Cu 3.418915404669335523e+00 3.299372492738804619e-01 0.000000000000000000e+00
Cu 3.401438242916459576e+00 4.208333054362335401e-01 0.000000000000000000e+00
Cu 3.385052629806042823e+00 5.112190655374270198e-01 0.000000000000000000e+00
Cu 3.369882813285648648e+00 6.014448758841968168e-01 0.000000000000000000e+00
Cu 3.356311027391276181e+00 6.917011758457851656e-01 0.000000000000000000e+00
Cu 3.344934346088890287e+00 7.821026923707160572e-01 0.000000000000000000e+00
Cu 3.336446478175798980e+00 8.726283224708931696e-01 0.000000000000000000e+00
Cu 3.594106721157448447e+00 6.900796889898420938e-02 0.000000000000000000e+00
Cu 3.578262220173186403e+00 1.641692129745031814e-01 0.000000000000000000e+00
Cu 3.562650885995509942e+00 2.560753720270792511e-01 0.000000000000000000e+00
Cu 3.547467975935736817e+00 3.460243038578382224e-01 0.000000000000000000e+00
Cu 3.532516057403643384e+00 4.350013417396458859e-01 0.000000000000000000e+00
Cu 3.517808895325091001e+00 5.235650728203922188e-01 0.000000000000000000e+00
Cu 3.503667209980355857e+00 6.119919341794248790e-01 0.000000000000000000e+00
Cu 3.490689142636119513e+00 7.005278386463295037e-01 0.000000000000000000e+00
Cu 3.479697376277153253e+00 7.894022732722091318e-01 0.000000000000000000e+00
Cu 3.471657806901285337e+00 8.786382725473247390e-01 0.000000000000000000e+00
Cu 3.715092452024383540e+00 8.639690533431283737e-02 0.000000000000000000e+00
Cu 3.704586356324395258e+00 1.793442100875856093e-01 0.000000000000000000e+00
Cu 3.693627978864922223e+00 2.697061330724488393e-01 0.000000000000000000e+00
Cu 3.681691177936401438e+00 3.583258374837721139e-01 0.000000000000000000e+00
Cu 3.668743514453848054e+00 4.462472210638781522e-01 0.000000000000000000e+00
Cu 3.655264926511775148e+00 5.338942646495036248e-01 0.000000000000000000e+00
Cu 3.641779228595765527e+00 6.212419044010787372e-01 0.000000000000000000e+00
Cu 3.628855925756471201e+00 7.084338570560980708e-01 0.000000000000000000e+00
Cu 3.617515611580493839e+00 7.959577480064194965e-01 0.000000000000000000e+00
Cu 3.609186878857758796e+00 8.841236697285251855e-01 0.000000000000000000e+00
Cu 3.842865256551491360e+00 9.952952510659386631e-02 0.000000000000000000e+00
Cu 3.837341915688758043e+00 1.904974056001719485e-01 0.000000000000000000e+00
Cu 3.830640950075035800e+00 2.792963500943336785e-01 0.000000000000000000e+00
Cu 3.821190870746622448e+00 3.672897107741819878e-01 0.000000000000000000e+00
Cu 3.809483301365264474e+00 4.552170584021891786e-01 0.000000000000000000e+00
Cu 3.796820921576238295e+00 5.428841948586540234e-01 0.000000000000000000e+00
Cu 3.783899330173227771e+00 6.301094702262204361e-01 0.000000000000000000e+00
Cu 3.770742826846386730e+00 7.165141988953885877e-01 0.000000000000000000e+00
Cu 3.758124359147686722e+00 8.027632949908961590e-01 0.000000000000000000e+00
Cu 3.748289069360902115e+00 8.901014589231204255e-01 0.000000000000000000e+00
Cu 3.975308080928055432e+00 1.069863459821107921e-01 0.000000000000000000e+00
Cu 3.976701486501385663e+00 1.965610412185672118e-01 0.000000000000000000e+00
Cu 3.973928280385618184e+00 2.846922567432474960e-01 0.000000000000000000e+00
Cu 3.965181613738189448e+00 3.738732512263495122e-01 0.000000000000000000e+00
Cu 3.954193945334666616e+00 4.628235629290711195e-01 0.000000000000000000e+00
Cu 3.942016143977522979e+00 5.512619391421766935e-01 0.000000000000000000e+00
Cu 3.929346071742418900e+00 6.391145142642959964e-01 0.000000000000000000e+00
Cu 3.916661565321067240e+00 7.263434826509930220e-01 0.000000000000000000e+00
Cu 3.901661923332701232e+00 8.116071000017681669e-01 0.000000000000000000e+00
Cu 3.887354455872865433e+00 8.983693705960312803e-01 0.000000000000000000e+00
Cu 4.106534352133619059e+00 9.989429672754797374e-02 0.000000000000000000e+00
Cu 4.125249483949140483e+00 1.940868927555745027e-01 0.000000000000000000e+00
Cu 4.121253579160327973e+00 2.877882012971422765e-01 0.000000000000000000e+00
Cu 4.113274792120342305e+00 3.797677723308724440e-01 0.000000000000000000e+00
Cu 4.102479493411904876e+00 4.702126595306407308e-01 0.000000000000000000e+00
Cu 4.090531674713108856e+00 5.595977389045696526e-01 0.000000000000000000e+00
Cu 4.078111973472974050e+00 6.483454899253662251e-01 0.000000000000000000e+00
Cu 4.064816858285580814e+00 7.370978767203860693e-01 0.000000000000000000e+00
Cu 4.051073396421675632e+00 8.270398364515983980e-01 0.000000000000000000e+00
Cu 4.019800203308860453e+00 9.164985063863150261e-01 0.000000000000000000e+00
