200

Cu 0.000000000000000000e+00 1.328660909890623520e-02 0.000000000000000000e+00
Cu 0.000000000000000000e+00 1.184540230880929551e-01 0.000000000000000000e+00
Cu 0.000000000000000000e+00 2.236370312928130932e-01 0.000000000000000000e+00
Cu 0.000000000000000000e+00 3.288450538806452217e-01 0.000000000000000000e+00
Cu 0.000000000000000000e+00 4.340804962766555142e-01 0.000000000000000000e+00
Cu 0.000000000000000000e+00 5.393421896369045010e-01 0.000000000000000000e+00
Cu 0.000000000000000000e+00 6.446282706250711092e-01 0.000000000000000000e+00
Cu 0.000000000000000000e+00 7.499371057640107363e-01 0.000000000000000000e+00
Cu 0.000000000000000000e+00 8.552661752846139054e-01 0.000000000000000000e+00
Cu 0.000000000000000000e+00 9.606097083395200853e-01 0.000000000000000000e+00
Cu 1.056183789932099298e-01 1.339404269492878302e-02 0.000000000000000000e+00
Cu 1.055227159226425626e-01 1.185082591145926179e-01 0.000000000000000000e+00
Cu 1.054519251015627324e-01 2.236785848441097957e-01 0.000000000000000000e+00
Cu 1.053843688735579265e-01 3.288850319809528133e-01 0.000000000000000000e+00
Cu 1.053187354636964945e-01 4.341219262471541218e-01 0.000000000000000000e+00
Cu 1.052543941674398131e-01 5.393860682206043089e-01 0.000000000000000000e+00
Cu 1.051902926191333326e-01 6.446747913521484463e-01 0.000000000000000000e+00
Cu 1.051245567541950199e-01 7.499869994375976123e-01 0.000000000000000000e+00
Cu 1.050538170382488840e-01 8.553266631942504361e-01 0.000000000000000000e+00
Cu 1.049560511747682640e-01 9.607147096664601094e-01 0.000000000000000000e+00
Cu 2.112242104184383351e-01 1.353257478717934635e-02 0.000000000000000000e+00
Cu 2.110586623941076989e-01 1.186503088158665647e-01 0.000000000000000000e+00
Cu 2.109060447309379360e-01 2.238109433661579495e-01 0.000000000000000000e+00
Cu 2.107661462833301524e-01 3.290152936047212040e-01 0.000000000000000000e+00
Cu 2.106330091892244238e-01 4.342549991751698535e-01 0.000000000000000000e+00
Cu 2.105043055452693601e-01 5.395242390779875219e-01 0.000000000000000000e+00
Cu 2.103770621638506866e-01 6.448189900760303850e-01 0.000000000000000000e+00
Cu 2.102459043975986597e-01 7.501382248735746217e-01 0.000000000000000000e+00
Cu 2.100999653991510452e-01 8.554868650361391325e-01 0.000000000000000000e+00
Cu 2.099319806280674772e-01 9.608672505390781771e-01 0.000000000000000000e+00
Cu 3.168183548789229032e-01 1.373859683024989883e-02 0.000000000000000000e+00
Cu 3.165823769768046914e-01 1.188613432969968520e-01 0.000000000000000000e+00
Cu 3.163555601659444605e-01 2.240258269877687947e-01 0.000000000000000000e+00
Cu 3.161412225798928555e-01 3.292318326024997188e-01 0.000000000000000000e+00
Cu 3.159391159437549002e-01 4.344758455992470125e-01 0.000000000000000000e+00
Cu 3.157465294493381203e-01 5.397516127120437490e-01 0.000000000000000000e+00
Cu 3.155590980090334230e-01 6.450536845895358251e-01 0.000000000000000000e+00
Cu 3.153685204551636145e-01 7.503785376488876224e-01 0.000000000000000000e+00
Cu 3.151642568978985648e-01 8.557241712679987122e-01 0.000000000000000000e+00
Cu 3.149362882092613947e-01 9.610924733146235521e-01 0.000000000000000000e+00
Cu 4.223993092652947312e-01 1.401455468045136564e-02 0.000000000000000000e+00
Cu 4.220906503531490772e-01 1.191438340234194926e-01 0.000000000000000000e+00
Cu 4.217903640942559651e-01 2.243153374058719784e-01 0.000000000000000000e+00
Cu 4.215037295722548483e-01 3.295280016623283736e-01 0.000000000000000000e+00
Cu 4.212334023280978612e-01 4.347778634819789434e-01 0.000000000000000000e+00
Cu 4.209791871876021330e-01 5.400592865633422335e-01 0.000000000000000000e+00
Cu 4.207375043770952283e-01 6.453658792169492120e-01 0.000000000000000000e+00
Cu 4.205001909434489260e-01 7.506911179031781067e-01 0.000000000000000000e+00
Cu 4.202536446172967510e-01 8.560294198544566857e-01 0.000000000000000000e+00
Cu 4.199808671998150889e-01 9.613802593322919865e-01 0.000000000000000000e+00
Cu 5.279661737471837979e-01 1.436191690742676629e-02 0.000000000000000000e+00
Cu 5.275815947343993617e-01 1.194974865644087836e-01 0.000000000000000000e+00
Cu 5.272059104406584540e-01 2.246767491203465195e-01 0.000000000000000000e+00
Cu 5.268480306400550317e-01 3.298974089852873548e-01 0.000000000000000000e+00
Cu 5.265131481646996292e-01 4.351531787518237993e-01 0.000000000000000000e+00
Cu 5.262027647781473139e-01 5.404359979735881003e-01 0.000000000000000000e+00
Cu 5.259155182785343330e-01 6.457392874022311879e-01 0.000000000000000000e+00
Cu 5.256444886555909912e-01 7.510570091145610805e-01 0.000000000000000000e+00
Cu 5.253739141757544084e-01 8.563833085162098069e-01 0.000000000000000000e+00
Cu 5.250786611371783819e-01 9.617119365082151816e-01 0.000000000000000000e+00
Cu 6.335202378238088405e-01 1.478358663024663226e-02 0.000000000000000000e+00
Cu 6.330546162628508666e-01 1.199236037391549770e-01 0.000000000000000000e+00
Cu 6.325994061791848644e-01 2.251082549631075180e-01 0.000000000000000000e+00
Cu 6.321703991736327133e-01 3.303351292734169053e-01 0.000000000000000000e+00
Cu 6.317766853112045666e-01 4.355937089573057586e-01 0.000000000000000000e+00
Cu 6.314213204573524418e-01 5.408709705948777646e-01 0.000000000000000000e+00
Cu 6.311002187405018171e-01 6.461561274741171035e-01 0.000000000000000000e+00
Cu 6.308068960319275220e-01 7.514515103822984043e-01 0.000000000000000000e+00
Cu 6.305283564107873051e-01 8.567553940775852750e-01 0.000000000000000000e+00
Cu 6.302407196655362975e-01 9.620590049973863911e-01 0.000000000000000000e+00
Cu 7.390634158142790344e-01 1.528603162235112750e-02 0.000000000000000000e+00
Cu 7.385114575144200444e-01 1.204277015321071481e-01 0.000000000000000000e+00
Cu 7.379707725657564943e-01 2.256112307017529295e-01 0.000000000000000000e+00
Cu 7.374675946840159035e-01 3.308364988198255197e-01 0.000000000000000000e+00
Cu 7.370234317028717674e-01 4.360916220018864475e-01 0.000000000000000000e+00
Cu 7.366409677998356775e-01 5.413503059919582139e-01 0.000000000000000000e+00
Cu 7.363095198879495706e-01 6.466016022119508433e-01 0.000000000000000000e+00
Cu 7.359981221259496165e-01 7.518462694554793879e-01 0.000000000000000000e+00
Cu 7.357217038122976227e-01 8.571112179602062842e-01 0.000000000000000000e+00
Cu 7.354743562277724633e-01 9.623639079043463385e-01 0.000000000000000000e+00
Cu 8.445947553347379344e-01 1.587578159913074008e-02 0.000000000000000000e+00
Cu 8.439540072181836994e-01 1.210205970524271674e-01 0.000000000000000000e+00
Cu 8.433254855021782292e-01 2.261958163314765069e-01 0.000000000000000000e+00
Cu 8.427406129664792855e-01 3.314014505044950987e-01 0.000000000000000000e+00
Cu 8.422494796662516325e-01 4.366331626494213136e-01 0.000000000000000000e+00
Cu 8.418802179000696162e-01 5.418549121220862519e-01 0.000000000000000000e+00
Cu 8.415570700302351659e-01 6.470408525821067514e-01 0.000000000000000000e+00
Cu 8.412368267386766130e-01 7.522630699401816612e-01 0.000000000000000000e+00
Cu 4.470964693819585278e+00 6.764741551166131295e-01 0.000000000000000000e+00
Cu 4.447317830896614588e+00 7.784562040800370175e-01 0.000000000000000000e+00
Cu 9.501111083678178693e-01 1.656181021557293423e-02 0.000000000000000000e+00
Cu 9.493752870818092937e-01 1.217097421417953212e-01 0.000000000000000000e+00
Cu 9.486689467652377195e-01 2.268875125327793063e-01 0.000000000000000000e+00
Cu 9.480058494765314370e-01 3.320524815616497372e-01 0.000000000000000000e+00
Cu 9.474611517930264792e-01 4.372049556550691163e-01 0.000000000000000000e+00
Cu 9.471824227262588547e-01 5.422928823054460334e-01 0.000000000000000000e+00
Cu 9.468466422835292162e-01 6.474752200070947872e-01 0.000000000000000000e+00
Cu 4.604526013139758511e+00 6.008695400410762888e-01 0.000000000000000000e+00
Cu 4.578977436150079683e+00 7.008716595871378185e-01 0.000000000000000000e+00
Cu 4.558020777100278309e+00 7.996047068607126107e-01 0.000000000000000000e+00
Cu 1.055602559050806910e+00 1.734925304526745496e-02 0.000000000000000000e+00
Cu 1.054769843665643192e+00 1.225123403521257148e-01 0.000000000000000000e+00
Cu 1.053967650348245133e+00 2.276851439054333459e-01 0.000000000000000000e+00
Cu 1.053272942926045452e+00 3.328885217679656838e-01 0.000000000000000000e+00
Cu 4.797415442748872216e+00 3.271850590160188532e-01 0.000000000000000000e+00
Cu 4.761199497749967868e+00 4.248463290623829547e-01 0.000000000000000000e+00
Cu 4.741146325903250691e+00 5.265766310342879786e-01 0.000000000000000000e+00
Cu 4.714724653338441485e+00 6.249181287350666913e-01 0.000000000000000000e+00
Cu 4.693402797594370846e+00 7.222163126569215441e-01 0.000000000000000000e+00
Cu 4.675733142041072377e+00 8.184528673065963877e-01 0.000000000000000000e+00
Cu 1.161063869360102307e+00 1.826173804646487667e-02 0.000000000000000000e+00
Cu 1.160107281980708560e+00 1.234301184304307519e-01 0.000000000000000000e+00
Cu 1.159240048856644334e+00 2.286446246245879554e-01 0.000000000000000000e+00
Cu 4.935200620593169774e+00 2.583565342063677828e-01 0.000000000000000000e+00
Cu 4.903039182935998497e+00 3.567627090187186489e-01 0.000000000000000000e+00
Cu 4.880149831692951246e+00 4.539939566396595794e-01 0.000000000000000000e+00
Cu 4.852781324617707170e+00 5.486983239706193505e-01 0.000000000000000000e+00
Cu 4.832100686980671078e+00 6.453626502309132151e-01 0.000000000000000000e+00
Cu 4.813934859051554938e+00 7.401341322257702915e-01 0.000000000000000000e+00
Cu 4.799357408228563493e+00 8.340719057404554215e-01 0.000000000000000000e+00
Cu 1.266467152677309471e+00 1.929742122495892859e-02 0.000000000000000000e+00
Cu 1.265401690242111021e+00 1.245163332459321426e-01 0.000000000000000000e+00
Cu 5.076533537413715713e+00 1.914322625020722091e-01 0.000000000000000000e+00
Cu 5.044435886104080780e+00 2.877838086924828231e-01 0.000000000000000000e+00
Cu 5.018498559358818945e+00 3.824891158680193137e-01 0.000000000000000000e+00
Cu 4.995435043329041314e+00 4.766641899728830678e-01 0.000000000000000000e+00
Cu 4.974121085490089911e+00 5.701661942637618052e-01 0.000000000000000000e+00
Cu 4.955385464563344833e+00 6.624032865700123507e-01 0.000000000000000000e+00
Cu 4.940148003145820255e+00 7.547903244769432751e-01 0.000000000000000000e+00
Cu 4.927997869787165364e+00 8.466021663843980027e-01 0.000000000000000000e+00
Cu 1.371821914235030304e+00 2.055005930565202699e-02 0.000000000000000000e+00
Cu 5.217914654263781316e+00 1.259076108200401778e-01 0.000000000000000000e+00
Cu 5.187691860976989311e+00 2.212154836351954146e-01 0.000000000000000000e+00
Cu 5.162381301846900250e+00 3.141119153762438887e-01 0.000000000000000000e+00
Cu 5.139972482142708188e+00 4.054485044030487484e-01 0.000000000000000000e+00
Cu 5.119656041372593336e+00 4.962672494321375138e-01 0.000000000000000000e+00
Cu 5.101213558080664789e+00 5.866689063851300290e-01 0.000000000000000000e+00
Cu 5.084918954618351528e+00 6.767053977423346245e-01 0.000000000000000000e+00
Cu 5.071319773952044585e+00 7.665942811582396876e-01 0.000000000000000000e+00
Cu 5.061036745478028287e+00 8.564801412359385191e-01 0.000000000000000000e+00
Cu 5.355629390125660194e+00 5.911104980120034103e-02 0.000000000000000000e+00
Cu 5.330640584648258518e+00 1.545091832532301257e-01 0.000000000000000000e+00
Cu 5.308171335192497509e+00 2.462679269663470560e-01 0.000000000000000000e+00
Cu 5.287724796860496568e+00 3.359104395817029132e-01 0.000000000000000000e+00
Cu 5.268718590844987837e+00 4.244616016587216545e-01 0.000000000000000000e+00
Cu 5.250835385870123773e+00 5.124568998188354652e-01 0.000000000000000000e+00
Cu 5.234257306797311493e+00 6.002703275539702510e-01 0.000000000000000000e+00
Cu 5.219429370933028167e+00 6.881018731071215644e-01 0.000000000000000000e+00
Cu 5.207042575580127064e+00 7.760919965397647946e-01 0.000000000000000000e+00
Cu 5.197897118567733621e+00 8.642447507595268918e-01 0.000000000000000000e+00
Cu 5.469498851325699462e+00 8.245952855558980055e-02 0.000000000000000000e+00
Cu 5.453046686718851177e+00 1.758665013622076889e-01 0.000000000000000000e+00
Cu 5.436490407378653522e+00 2.655439447553494259e-01 0.000000000000000000e+00
Cu 5.420199944443376161e+00 3.530810319856636514e-01 0.000000000000000000e+00
Cu 5.404026839406609994e+00 4.395681365594551471e-01 0.000000000000000000e+00
Cu 5.388059681533840184e+00 5.256099541425632848e-01 0.000000000000000000e+00
Cu 5.372685857806291487e+00 6.114937188450574324e-01 0.000000000000000000e+00
Cu 5.358586024118635827e+00 6.974796777696804506e-01 0.000000000000000000e+00
Cu 5.346687802754996000e+00 7.838174861006037553e-01 0.000000000000000000e+00
Cu 5.338089356427113685e+00 8.705431219188949354e-01 0.000000000000000000e+00
Cu 5.593685437061581389e+00 1.007651973453521504e-01 0.000000000000000000e+00
Cu 5.583208687847840856e+00 1.916527807983077480e-01 0.000000000000000000e+00
Cu 5.571835585243869460e+00 2.797296656728586739e-01 0.000000000000000000e+00
Cu 5.559138370982963373e+00 3.658983992958964593e-01 0.000000000000000000e+00
Cu 5.545210845723320681e+00 4.512912979624614795e-01 0.000000000000000000e+00
Cu 5.530643306553763239e+00 5.363734995358390156e-01 0.000000000000000000e+00
Cu 5.516042799688071874e+00 6.211215173514471610e-01 0.000000000000000000e+00
Cu 5.502064433453488945e+00 7.056939619510602668e-01 0.000000000000000000e+00
Cu 5.489853263650744886e+00 7.906003095061110431e-01 0.000000000000000000e+00
Cu 5.481018596331250770e+00 8.761510395379508154e-01 0.000000000000000000e+00
Cu 5.725862715979077144e+00 1.143255663381731319e-01 0.000000000000000000e+00
Cu 5.720736118672339998e+00 2.029903750228917447e-01 0.000000000000000000e+00
Cu 5.714010580144956997e+00 2.894382118695321693e-01 0.000000000000000000e+00
Cu 5.704104443177427264e+00 3.749857537062691870e-01 0.000000000000000000e+00
Cu 5.691582025194631633e+00 4.604153618065532916e-01 0.000000000000000000e+00
Cu 5.677946686171400081e+00 5.455294272066451011e-01 0.000000000000000000e+00
Cu 5.664004856709038194e+00 6.301717195709705122e-01 0.000000000000000000e+00
Cu 5.649770513979157194e+00 7.139152007100657560e-01 0.000000000000000000e+00
Cu 5.636226953680088414e+00 7.975017721345498689e-01 0.000000000000000000e+00
Cu 5.625875034501371275e+00 8.821711145508267515e-01 0.000000000000000000e+00
Cu 5.863538977148869513e+00 1.217561134898201974e-01 0.000000000000000000e+00
Cu 5.865633163151221297e+00 2.089249422761668973e-01 0.000000000000000000e+00
Cu 5.863402992165278604e+00 2.946096037113871691e-01 0.000000000000000000e+00
Cu 5.854267860138386403e+00 3.814442055615568927e-01 0.000000000000000000e+00
Cu 5.842612468378494128e+00 4.679752633363872261e-01 0.000000000000000000e+00
Cu 5.829533737651436454e+00 5.539226841036690718e-01 0.000000000000000000e+00
Cu 5.815825946238319055e+00 6.392172971341324450e-01 0.000000000000000000e+00
Cu 5.802183353178198999e+00 7.238904446778472446e-01 0.000000000000000000e+00
Cu 5.785835491762647109e+00 8.063297048608828455e-01 0.000000000000000000e+00
Cu 5.770912137127659491e+00 8.904770610687362531e-01 0.000000000000000000e+00
Cu 5.999381895809474230e+00 1.138484351779322640e-01 0.000000000000000000e+00
Cu 6.021446718611864313e+00 2.056340666654484506e-01 0.000000000000000000e+00
Cu 6.017512409331796874e+00 2.973109954060889071e-01 0.000000000000000000e+00
Cu 6.009380567858069178e+00 3.871186584683631859e-01 0.000000000000000000e+00
Cu 5.997900454748927856e+00 4.752324399393642596e-01 0.000000000000000000e+00
Cu 5.985060178754067373e+00 5.621907326648103442e-01 0.000000000000000000e+00
Cu 5.971664730141613475e+00 6.484431859301167389e-01 0.000000000000000000e+00
Cu 5.957172853018592562e+00 7.346569454985362180e-01 0.000000000000000000e+00
Cu 5.942651413709358899e+00 8.222660023158886444e-01 0.000000000000000000e+00
Cu 5.908227224820339352e+00 9.088126869674669761e-01 0.000000000000000000e+00
