200

Cu 0.000000000000000000e+00 1.155290599009707424e-02 0.000000000000000000e+00
Cu 0.000000000000000000e+00 1.165908650396297874e-01 0.000000000000000000e+00
Cu 0.000000000000000000e+00 2.216651229582914384e-01 0.000000000000000000e+00
Cu 0.000000000000000000e+00 3.267977538858779507e-01 0.000000000000000000e+00
Cu 0.000000000000000000e+00 4.319945030420759835e-01 0.000000000000000000e+00
Cu 0.000000000000000000e+00 5.372527561275298735e-01 0.000000000000000000e+00
Cu 0.000000000000000000e+00 6.425682830324227490e-01 0.000000000000000000e+00
Cu 0.000000000000000000e+00 7.479373997768703486e-01 0.000000000000000000e+00
Cu 0.000000000000000000e+00 8.533543335610260794e-01 0.000000000000000000e+00
Cu 0.000000000000000000e+00 9.588055814392897336e-01 0.000000000000000000e+00
Cu 1.060951760536412297e-01 1.180478377040867360e-02 0.000000000000000000e+00
Cu 1.058714561770637136e-01 1.167184161699086203e-01 0.000000000000000000e+00
Cu 1.057056575547048460e-01 2.217629072783560418e-01 0.000000000000000000e+00
Cu 1.055473251251087125e-01 3.268917677363584740e-01 0.000000000000000000e+00
Cu 1.053934238267262569e-01 4.320918499781452038e-01 0.000000000000000000e+00
Cu 1.052424630546790751e-01 5.373557841436501503e-01 0.000000000000000000e+00
Cu 1.050919624033922611e-01 6.426774515186587378e-01 0.000000000000000000e+00
Cu 1.049375128484860697e-01 7.480544272747181589e-01 0.000000000000000000e+00
Cu 1.047711562340647162e-01 8.534962145460517347e-01 0.000000000000000000e+00
Cu 1.045409041386548832e-01 9.590523354774388443e-01 0.000000000000000000e+00
Cu 2.121608409340615953e-01 1.213099092814076858e-02 0.000000000000000000e+00
Cu 2.117734903213474296e-01 1.170523323605106580e-01 0.000000000000000000e+00
Cu 2.114161758157701576e-01 2.220739524956339139e-01 0.000000000000000000e+00
Cu 2.110883551652906198e-01 3.271977456504104875e-01 0.000000000000000000e+00
Cu 2.107761613692196168e-01 4.324042885973552464e-01 0.000000000000000000e+00
Cu 2.104741664197723183e-01 5.376800829333787668e-01 0.000000000000000000e+00
Cu 2.101753874881645556e-01 6.430158232902947191e-01 0.000000000000000000e+00
Cu 2.098671666183556661e-01 7.484092350064491805e-01 0.000000000000000000e+00
Cu 2.095238732276794025e-01 8.538720250259852484e-01 0.000000000000000000e+00
Cu 2.091284549800506154e-01 9.594096679718389087e-01 0.000000000000000000e+00
Cu 3.181988992527336468e-01 1.261599196905930156e-02 0.000000000000000000e+00
Cu 3.176466077525902376e-01 1.175486497818775816e-01 0.000000000000000000e+00
Cu 3.171154666237056552e-01 2.225788507449291964e-01 0.000000000000000000e+00
Cu 3.166132138682608010e-01 3.277062366695298046e-01 0.000000000000000000e+00
Cu 3.161392711953603385e-01 4.329226726755028287e-01 0.000000000000000000e+00
Cu 3.156873312919784569e-01 5.382136349108918028e-01 0.000000000000000000e+00
Cu 3.152471691986072910e-01 6.435664642972300786e-01 0.000000000000000000e+00
Cu 3.147992763707281316e-01 7.489729785734177137e-01 0.000000000000000000e+00
Cu 3.143189021755791179e-01 8.544284917963571591e-01 0.000000000000000000e+00
Cu 3.137825246686135605e-01 9.599374319314566417e-01 0.000000000000000000e+00
Cu 4.242056785331838054e-01 1.326563236302761087e-02 0.000000000000000000e+00
Cu 4.234831182995971166e-01 1.182129633111437816e-01 0.000000000000000000e+00
Cu 4.227797691270316349e-01 2.232590588366984707e-01 0.000000000000000000e+00
Cu 4.221079816560713294e-01 3.284016023616366242e-01 0.000000000000000000e+00
Cu 4.214739918960739851e-01 4.336314376498266454e-01 0.000000000000000000e+00
Cu 4.208773747616408323e-01 5.389354610495677989e-01 0.000000000000000000e+00
Cu 4.203097789168953047e-01 6.442987747691367728e-01 0.000000000000000000e+00
Cu 4.197520990716976930e-01 7.497060962060950740e-01 0.000000000000000000e+00
Cu 4.191724556659309764e-01 8.551442597668441614e-01 0.000000000000000000e+00
Cu 4.185309763583471288e-01 9.606118934918390639e-01 0.000000000000000000e+00
Cu 5.301789628173362301e-01 1.408332291400888302e-02 0.000000000000000000e+00
Cu 5.292784617586863138e-01 1.190445417962195107e-01 0.000000000000000000e+00
Cu 5.283982763011657591e-01 2.241080673245134658e-01 0.000000000000000000e+00
Cu 5.275593193374827905e-01 3.292687684065862541e-01 0.000000000000000000e+00
Cu 5.267738197048482673e-01 4.345120463190078608e-01 0.000000000000000000e+00
Cu 5.260453685044077510e-01 5.398190859480559434e-01 0.000000000000000000e+00
Cu 5.253708374644874279e-01 6.451745056834212733e-01 0.000000000000000000e+00
Cu 5.247340749986266761e-01 7.505641205434784302e-01 0.000000000000000000e+00
Cu 5.240981698062250338e-01 8.559740655365635220e-01 0.000000000000000000e+00
Cu 5.234042327565888719e-01 9.613894170362002889e-01 0.000000000000000000e+00
Cu 6.361216365619950519e-01 1.507594394284940235e-02 0.000000000000000000e+00
Cu 6.350310977590205574e-01 1.200464334387234544e-01 0.000000000000000000e+00
Cu 6.339642913370735489e-01 2.251215563737110625e-01 0.000000000000000000e+00
Cu 6.329583484448459973e-01 3.302960705969366084e-01 0.000000000000000000e+00
Cu 6.320347606004532715e-01 4.355454878644950956e-01 0.000000000000000000e+00
Cu 6.312008293987009244e-01 5.408392639770767119e-01 0.000000000000000000e+00
Cu 6.304470954456660170e-01 6.461520345425483258e-01 0.000000000000000000e+00
Cu 6.297583109766247134e-01 7.514891747882500583e-01 0.000000000000000000e+00
Cu 6.291040172834192479e-01 8.568465313974568121e-01 0.000000000000000000e+00
Cu 6.284283377802611925e-01 9.622033094608662962e-01 0.000000000000000000e+00
Cu 7.420379455217875897e-01 1.625877858871396450e-02 0.000000000000000000e+00
Cu 7.407449091736831859e-01 1.212316873144128060e-01 0.000000000000000000e+00
Cu 7.394774695077628301e-01 2.263027415320645330e-01 0.000000000000000000e+00
Cu 7.382973304404027992e-01 3.314724581342057275e-01 0.000000000000000000e+00
Cu 7.372553592433805925e-01 4.367133409932104082e-01 0.000000000000000000e+00
Cu 7.363582075392395287e-01 5.419635062706246176e-01 0.000000000000000000e+00
Cu 7.355807832644845057e-01 6.471968647680287345e-01 0.000000000000000000e+00
Cu 7.348503274838120713e-01 7.524149227199478096e-01 0.000000000000000000e+00
Cu 7.342014247772062907e-01 8.576810262585919942e-01 0.000000000000000000e+00
Cu 7.336208511832624790e-01 9.629186627707866375e-01 0.000000000000000000e+00
Cu 8.479253133005293375e-01 1.764724671448002213e-02 0.000000000000000000e+00
Cu 8.464239483428476207e-01 1.226258181707173128e-01 0.000000000000000000e+00
Cu 8.449504462875889743e-01 2.276757018096413621e-01 0.000000000000000000e+00
Cu 8.435784593191953951e-01 3.327977336796212882e-01 0.000000000000000000e+00
Cu 8.424263805088633150e-01 4.379832475323981456e-01 0.000000000000000000e+00
Cu 8.415612248393958827e-01 5.431471960664843168e-01 0.000000000000000000e+00
Cu 8.408045599049994712e-01 6.482272597029180572e-01 0.000000000000000000e+00
Cu 8.400535391446808386e-01 7.533926643362901521e-01 0.000000000000000000e+00
Cu 3.653041453048968545e+00 6.808315177572883403e-01 0.000000000000000000e+00
Cu 3.630132028301255254e+00 7.830111965693999920e-01 0.000000000000000000e+00
Cu 9.537758725301160867e-01 1.926233968665445190e-02 0.000000000000000000e+00
Cu 9.520513907189487313e-01 1.242462576319303125e-01 0.000000000000000000e+00
Cu 9.503951436799988883e-01 2.293005467399298336e-01 0.000000000000000000e+00
Cu 9.488401847279445134e-01 3.343256787505688443e-01 0.000000000000000000e+00
Cu 9.475624631016761334e-01 4.393236583709438925e-01 0.000000000000000000e+00
Cu 9.469134649000316983e-01 5.441744984464127466e-01 0.000000000000000000e+00
Cu 9.461268676854169835e-01 6.492464199872146624e-01 0.000000000000000000e+00
Cu 3.785553385526801762e+00 6.041260398554350042e-01 0.000000000000000000e+00
Cu 3.760868559879374740e+00 7.044754868151658078e-01 0.000000000000000000e+00
Cu 3.740462755692886887e+00 8.035898294348732263e-01 0.000000000000000000e+00
Cu 1.059565893143558757e+00 2.111596013848279080e-02 0.000000000000000000e+00
Cu 1.057613673054628611e+00 1.261330858090864426e-01 0.000000000000000000e+00
Cu 1.055732520422480780e+00 2.311738509867740932e-01 0.000000000000000000e+00
Cu 1.054102295168014125e+00 3.362889959898333059e-01 0.000000000000000000e+00
Cu 3.975081092814551020e+00 3.283998385172866019e-01 0.000000000000000000e+00
Cu 3.940310630924216628e+00 4.266678329719502671e-01 0.000000000000000000e+00
Cu 3.920881645305634322e+00 5.286158039012542886e-01 0.000000000000000000e+00
Cu 3.895405841731305774e+00 6.274396013054006627e-01 0.000000000000000000e+00
Cu 3.874678323597649854e+00 7.252252478949293701e-01 0.000000000000000000e+00
Cu 3.857390382161751230e+00 8.219942353907230270e-01 0.000000000000000000e+00
Cu 1.165282084457148759e+00 2.326307918959400964e-02 0.000000000000000000e+00
Cu 1.163039030034978882e+00 1.282895580680824543e-01 0.000000000000000000e+00
Cu 1.161003741377005349e+00 2.334266783128338130e-01 0.000000000000000000e+00
Cu 4.111667376036972854e+00 2.580610284614147099e-01 0.000000000000000000e+00
Cu 4.080683983520340341e+00 3.569782678529730413e-01 0.000000000000000000e+00
Cu 4.058444287541767004e+00 4.546859984199108640e-01 0.000000000000000000e+00
Cu 4.032049656902023216e+00 5.500993985405042697e-01 0.000000000000000000e+00
Cu 4.011952763799456534e+00 6.473191571110989972e-01 0.000000000000000000e+00
Cu 3.994233993814785499e+00 7.427420860114329892e-01 0.000000000000000000e+00
Cu 3.979895156433024273e+00 8.373361690588141393e-01 0.000000000000000000e+00
Cu 1.270858600341990163e+00 2.569888869374506099e-02 0.000000000000000000e+00
Cu 1.268358193113035881e+00 1.308404277404829896e-01 0.000000000000000000e+00
Cu 4.251617006496716478e+00 1.895961859753678425e-01 0.000000000000000000e+00
Cu 4.220617436632513986e+00 2.865531421241067633e-01 0.000000000000000000e+00
Cu 4.195445169521898165e+00 3.818987057178492295e-01 0.000000000000000000e+00
Cu 4.173054032130028013e+00 4.767601236459934611e-01 0.000000000000000000e+00
Cu 4.152328309121631200e+00 5.709796735244887511e-01 0.000000000000000000e+00
Cu 4.134079242893260009e+00 6.640123528404680009e-01 0.000000000000000000e+00
Cu 4.119145904496976485e+00 7.571674730307443868e-01 0.000000000000000000e+00
Cu 4.107148385422121351e+00 8.497478987603477307e-01 0.000000000000000000e+00
Cu 1.376313500016699276e+00 2.864196869151054009e-02 0.000000000000000000e+00
Cu 4.391638582380572586e+00 1.225460065327851344e-01 0.000000000000000000e+00
Cu 4.362338162713669476e+00 2.185018591814650857e-01 0.000000000000000000e+00
Cu 4.337692482927065107e+00 3.121308911264014108e-01 0.000000000000000000e+00
Cu 4.315860113517593355e+00 4.042866014218396975e-01 0.000000000000000000e+00
Cu 4.296049151576794678e+00 4.959414238479109005e-01 0.000000000000000000e+00
Cu 4.278051633510960627e+00 5.872050679394391626e-01 0.000000000000000000e+00
Cu 4.262115239629634900e+00 6.781232702734301121e-01 0.000000000000000000e+00
Cu 4.248759761939115975e+00 7.688941377514271203e-01 0.000000000000000000e+00
Cu 4.238565308817571875e+00 8.596378751439732735e-01 0.000000000000000000e+00
Cu 4.528230371963759104e+00 5.435269315693428555e-02 0.000000000000000000e+00
Cu 4.503775753713563645e+00 1.503891661727737583e-01 0.000000000000000000e+00
Cu 4.481752835765797194e+00 2.429547076167100639e-01 0.000000000000000000e+00
Cu 4.461733938701613056e+00 3.334979031873731570e-01 0.000000000000000000e+00
Cu 4.443133678459201263e+00 4.229768240940168789e-01 0.000000000000000000e+00
Cu 4.425640787257762554e+00 5.119192626171193972e-01 0.000000000000000000e+00
Cu 4.409414882938133218e+00 6.006898705702099495e-01 0.000000000000000000e+00
Cu 4.394878552868391353e+00 6.894840709713193627e-01 0.000000000000000000e+00
Cu 4.382686934086678754e+00 7.784295588810297151e-01 0.000000000000000000e+00
Cu 4.373599442005761340e+00 8.675175963173958893e-01 0.000000000000000000e+00
Cu 4.641359627045415159e+00 7.732403178686891865e-02 0.000000000000000000e+00
Cu 4.624937295614352628e+00 1.714373777873710869e-01 0.000000000000000000e+00
Cu 4.608563637601469587e+00 2.620078504742425762e-01 0.000000000000000000e+00
Cu 4.592522157134660610e+00 3.505062532661360475e-01 0.000000000000000000e+00
Cu 4.576640952849348132e+00 4.379837952991231242e-01 0.000000000000000000e+00
Cu 4.560978376044912963e+00 5.250287345396892347e-01 0.000000000000000000e+00
Cu 4.545898607381195333e+00 6.119254067420123455e-01 0.000000000000000000e+00
Cu 4.532052736775029622e+00 6.989280762557620319e-01 0.000000000000000000e+00
Cu 4.520328895960228799e+00 7.862765260003774515e-01 0.000000000000000000e+00
Cu 4.511773888793410237e+00 8.739985872725193339e-01 0.000000000000000000e+00
Cu 4.764114872738987927e+00 9.549196816296165458e-02 0.000000000000000000e+00
Cu 4.753434895834200979e+00 1.872240184953681275e-01 0.000000000000000000e+00
Cu 4.742042449657143166e+00 2.762194534103950549e-01 0.000000000000000000e+00
Cu 4.729463157129883299e+00 3.633665722541670751e-01 0.000000000000000000e+00
Cu 4.715736387452218459e+00 4.497664334734692848e-01 0.000000000000000000e+00
Cu 4.701411007445566170e+00 5.358701539302078709e-01 0.000000000000000000e+00
Cu 4.687066291023709752e+00 6.216551054751755512e-01 0.000000000000000000e+00
Cu 4.673328483247124687e+00 7.072741698984650327e-01 0.000000000000000000e+00
Cu 4.661296359984487658e+00 7.932273547595440899e-01 0.000000000000000000e+00
Cu 4.652507619895561497e+00 8.798222768526238191e-01 0.000000000000000000e+00
Cu 4.894376253674946220e+00 1.090855531858945793e-01 0.000000000000000000e+00
Cu 4.888928415239861991e+00 1.986996223718422439e-01 0.000000000000000000e+00
Cu 4.882041085413455939e+00 2.860959918911908928e-01 0.000000000000000000e+00
Cu 4.872133902431778907e+00 3.726223461324585928e-01 0.000000000000000000e+00
Cu 4.859748324871816294e+00 4.590483627728942362e-01 0.000000000000000000e+00
Cu 4.846311061640722784e+00 5.451805628714456731e-01 0.000000000000000000e+00
Cu 4.832590876488462861e+00 6.308531437427284949e-01 0.000000000000000000e+00
Cu 4.818617026339357956e+00 7.156603230153535389e-01 0.000000000000000000e+00
Cu 4.805290066723880038e+00 8.003130519277505961e-01 0.000000000000000000e+00
Cu 4.795010721451246738e+00 8.860533329995879948e-01 0.000000000000000000e+00
Cu 5.029815317692295729e+00 1.166927480857161137e-01 0.000000000000000000e+00
Cu 5.031499398904592191e+00 2.048546396686322379e-01 0.000000000000000000e+00
Cu 5.028877561481239766e+00 2.915357936837340014e-01 0.000000000000000000e+00
Cu 5.019717565525477099e+00 3.793156778220697078e-01 0.000000000000000000e+00
Cu 5.008137163658918922e+00 4.668170429107729169e-01 0.000000000000000000e+00
Cu 4.995227246567509383e+00 5.537593800036769709e-01 0.000000000000000000e+00
Cu 4.981751795547308959e+00 6.400737243647551811e-01 0.000000000000000000e+00
Cu 4.968320527386143048e+00 7.257641397595879784e-01 0.000000000000000000e+00
Cu 4.952380219350158264e+00 8.093342433880604814e-01 0.000000000000000000e+00
Cu 4.937580828023767410e+00 8.945331148345107009e-01 0.000000000000000000e+00
Cu 5.163725491515164912e+00 1.092006474641356029e-01 0.000000000000000000e+00
Cu 5.184278635678868596e+00 2.020244867396405464e-01 0.000000000000000000e+00
Cu 5.180159474646651496e+00 2.945402732490391973e-01 0.000000000000000000e+00
Cu 5.171896673934908151e+00 3.852378168907817368e-01 0.000000000000000000e+00
Cu 5.160499225598732309e+00 4.742944440882402302e-01 0.000000000000000000e+00
Cu 5.147824398628312537e+00 5.622239227372715087e-01 0.000000000000000000e+00
Cu 5.134633332755021762e+00 6.494674246087958069e-01 0.000000000000000000e+00
Cu 5.120457485795899544e+00 7.366866770506704798e-01 0.000000000000000000e+00
Cu 5.106089120146299010e+00 8.252163361200185454e-01 0.000000000000000000e+00
Cu 5.072853767111916490e+00 9.129433878015842385e-01 0.000000000000000000e+00
