200

Cu 0.000000000000000000e+00 1.283020280271947484e-02 0.000000000000000000e+00
Cu 0.000000000000000000e+00 1.155490362240357421e-01 0.000000000000000000e+00
Cu 0.000000000000000000e+00 2.179059083673147990e-01 0.000000000000000000e+00
Cu 0.000000000000000000e+00 3.201103549364596734e-01 0.000000000000000000e+00
Cu 0.000000000000000000e+00 4.222728396017493835e-01 0.000000000000000000e+00
Cu 0.000000000000000000e+00 5.244430563527077149e-01 0.000000000000000000e+00
Cu 0.000000000000000000e+00 6.266579724651126782e-01 0.000000000000000000e+00
Cu 0.000000000000000000e+00 7.289616063818378233e-01 0.000000000000000000e+00
Cu 0.000000000000000000e+00 8.314516134727092389e-01 0.000000000000000000e+00
Cu 0.000000000000000000e+00 9.343168039557695481e-01 0.000000000000000000e+00
Cu 1.128878596867742418e-01 1.449165518488660168e-02 0.000000000000000000e+00
Cu 1.123274393598004545e-01 1.161202770253768890e-01 0.000000000000000000e+00
Cu 1.122575903575603329e-01 2.181492448357336966e-01 0.000000000000000000e+00
Cu 1.122123493747310963e-01 3.202307830178238723e-01 0.000000000000000000e+00
Cu 1.121635971674014715e-01 4.223178986588121409e-01 0.000000000000000000e+00
Cu 1.121080922488098125e-01 5.244256417336151666e-01 0.000000000000000000e+00
Cu 1.120483511068636612e-01 6.265697256755053957e-01 0.000000000000000000e+00
Cu 1.119921207775382427e-01 7.287584123366677158e-01 0.000000000000000000e+00
Cu 1.119693617111156975e-01 8.309401834866378955e-01 0.000000000000000000e+00
Cu 1.124214922632330721e-01 9.327808449500829546e-01 0.000000000000000000e+00
Cu 2.255664362695262992e-01 1.531490373074330218e-02 0.000000000000000000e+00
Cu 2.250338345851998212e-01 1.169101058622668415e-01 0.000000000000000000e+00
Cu 2.247174052666715827e-01 2.186269656834516073e-01 0.000000000000000000e+00
Cu 2.245656054332470786e-01 3.205066630412516937e-01 0.000000000000000000e+00
Cu 2.244423246759088275e-01 4.224507664723926026e-01 0.000000000000000000e+00
Cu 2.243260857088383298e-01 5.244325279057771017e-01 0.000000000000000000e+00
Cu 2.242268911798946940e-01 6.264403872928829831e-01 0.000000000000000000e+00
Cu 2.241748370926409106e-01 7.284337841051409246e-01 0.000000000000000000e+00
Cu 2.242951238564556138e-01 8.303139826161676229e-01 0.000000000000000000e+00
Cu 2.246336896213182721e-01 9.321255442329358099e-01 0.000000000000000000e+00
Cu 3.382243795488245053e-01 1.599530843867748298e-02 0.000000000000000000e+00
Cu 3.377365249124874014e-01 1.175634442473798003e-01 0.000000000000000000e+00
Cu 3.373664852039398587e-01 2.191939762298497352e-01 0.000000000000000000e+00
Cu 3.371109271379756356e-01 3.209051293335981048e-01 0.000000000000000000e+00
Cu 3.369095375557640271e-01 4.226741649586174820e-01 0.000000000000000000e+00
Cu 3.367225133575873497e-01 5.244752486541245373e-01 0.000000000000000000e+00
Cu 3.365831797826387417e-01 6.263042788646314696e-01 0.000000000000000000e+00
Cu 3.365427236711046044e-01 7.281231695769790901e-01 0.000000000000000000e+00
Cu 3.366190739224150241e-01 8.299103996847465581e-01 0.000000000000000000e+00
Cu 3.368084048946744513e-01 9.316992889125158550e-01 0.000000000000000000e+00
Cu 4.509369859222746579e-01 1.662224511182151462e-02 0.000000000000000000e+00
Cu 4.504768080164272548e-01 1.181540259623171385e-01 0.000000000000000000e+00
Cu 4.501109793919145785e-01 2.197347940232588503e-01 0.000000000000000000e+00
Cu 4.498345409257850092e-01 3.213597042756291544e-01 0.000000000000000000e+00
Cu 4.496117445269214308e-01 4.229979300503836082e-01 0.000000000000000000e+00
Cu 4.493616248232931709e-01 5.245920274423192531e-01 0.000000000000000000e+00
Cu 4.491220958004452091e-01 6.262069391366781312e-01 0.000000000000000000e+00
Cu 4.490053201405981298e-01 7.279129269030896188e-01 0.000000000000000000e+00
Cu 4.489816250721471724e-01 8.296734222631215738e-01 0.000000000000000000e+00
Cu 4.489991849003037716e-01 9.314489932427234553e-01 0.000000000000000000e+00
Cu 5.637477706090673335e-01 1.722898277462829933e-02 0.000000000000000000e+00
Cu 5.633033635129961469e-01 1.187038915045450366e-01 0.000000000000000000e+00
Cu 5.629521483806707582e-01 2.202323147020592009e-01 0.000000000000000000e+00
Cu 5.626953683178205212e-01 3.218039861586978190e-01 0.000000000000000000e+00
Cu 5.625099305319399834e-01 4.233852890037780314e-01 0.000000000000000000e+00
Cu 5.623345670403455676e-01 5.248989226937634811e-01 0.000000000000000000e+00
Cu 5.619131751633394956e-01 6.261960075360286648e-01 0.000000000000000000e+00
Cu 5.615057648049074368e-01 7.277303368359904212e-01 0.000000000000000000e+00
Cu 5.613688411041146686e-01 8.295992945777549421e-01 0.000000000000000000e+00
Cu 5.612361280140429898e-01 9.314659368750809465e-01 0.000000000000000000e+00
Cu 6.767002506338555268e-01 1.782828636472436057e-02 0.000000000000000000e+00
Cu 6.762603478573651072e-01 1.192230955551138727e-01 0.000000000000000000e+00
Cu 6.759165990067960150e-01 2.206792855133896947e-01 0.000000000000000000e+00
Cu 6.756779792015050745e-01 3.221920772351535289e-01 0.000000000000000000e+00
Cu 6.755467035480634541e-01 4.237477222162382429e-01 0.000000000000000000e+00
Cu 6.754725027421926153e-01 5.253016443904653388e-01 0.000000000000000000e+00
Cu 6.753919597274863351e-01 6.267244663880303657e-01 0.000000000000000000e+00
Cu 6.741276020247667367e-01 7.273515287425124098e-01 0.000000000000000000e+00
Cu 6.732814776746806062e-01 8.295773927622308586e-01 0.000000000000000000e+00
Cu 6.737855212389437520e-01 9.318501688672315986e-01 0.000000000000000000e+00
Cu 7.898396487563504875e-01 1.843214118677900804e-02 0.000000000000000000e+00
Cu 7.893930399006594545e-01 1.197220348324238987e-01 0.000000000000000000e+00
Cu 7.890443177540819031e-01 2.210778213097777389e-01 0.000000000000000000e+00
Cu 7.888088634281600342e-01 3.224994723344296599e-01 0.000000000000000000e+00
Cu 7.886945260048894291e-01 4.239907683984626141e-01 0.000000000000000000e+00
Cu 7.887174600168662675e-01 5.255649402134064951e-01 0.000000000000000000e+00
Cu 7.887414213627236270e-01 6.272398394931428811e-01 0.000000000000000000e+00
Cu 7.891350397608912770e-01 7.290292065080560269e-01 0.000000000000000000e+00
Cu 7.826378491114427405e-01 8.283795605574395537e-01 0.000000000000000000e+00
Cu 7.879398085244296857e-01 9.308783172385419746e-01 0.000000000000000000e+00
Cu 9.032107180311496064e-01 1.905472632682980033e-02 0.000000000000000000e+00
Cu 9.027478499338161821e-01 1.202152239239542009e-01 0.000000000000000000e+00
Cu 9.023863863013534825e-01 2.214389806037473096e-01 0.000000000000000000e+00
Cu 9.021429130356024562e-01 3.227231151308085910e-01 0.000000000000000000e+00
Cu 9.020362116802890240e-01 4.240716053367238891e-01 0.000000000000000000e+00
Cu 9.020638586531278813e-01 5.254996565549373555e-01 0.000000000000000000e+00
Cu 9.023587716343731691e-01 6.270282076219870770e-01 0.000000000000000000e+00
Cu 9.025251236381011122e-01 7.286702791289321191e-01 0.000000000000000000e+00
Cu 9.097849363271108825e-01 8.278057655699492257e-01 0.000000000000000000e+00
Cu 9.054009415683647033e-01 9.301990991961962552e-01 0.000000000000000000e+00
Cu 1.016853970291281772e+00 1.971128318111068506e-02 0.000000000000000000e+00
Cu 1.016369925150232500e+00 1.207201589245309181e-01 0.000000000000000000e+00
Cu 1.015997159221141644e+00 2.217796531381233949e-01 0.000000000000000000e+00
Cu 1.015755593866022544e+00 3.228751625364715272e-01 0.000000000000000000e+00
Cu 1.015667704743815403e+00 4.239934273985752067e-01 0.000000000000000000e+00
Cu 1.015797157425482489e+00 5.250989645917357729e-01 0.000000000000000000e+00
Cu 1.016199387606403048e+00 6.260740707672137750e-01 0.000000000000000000e+00
Cu 1.018031556403340865e+00 7.262562394237515040e-01 0.000000000000000000e+00
Cu 1.019655764779331841e+00 8.280517916003716783e-01 0.000000000000000000e+00
Cu 1.020125508009139148e+00 9.299103743590795279e-01 0.000000000000000000e+00
Cu 1.130801209834441101e+00 2.041604525261291395e-02 0.000000000000000000e+00
Cu 1.130298435084639896e+00 1.212559721461095030e-01 0.000000000000000000e+00
Cu 1.129928645463046166e+00 2.221221508117486865e-01 0.000000000000000000e+00
Cu 1.129711962474149400e+00 3.229832342404199697e-01 0.000000000000000000e+00
Cu 1.129688698619792930e+00 4.238065198096039876e-01 0.000000000000000000e+00
Cu 1.129925865698603094e+00 5.245382936196233414e-01 0.000000000000000000e+00
Cu 1.130675098172787774e+00 6.250626115439155139e-01 0.000000000000000000e+00
Cu 1.131660475865081228e+00 7.258565608281231096e-01 0.000000000000000000e+00
Cu 1.132604051351270735e+00 8.270243683221647490e-01 0.000000000000000000e+00
Cu 1.133741728371535862e+00 9.282030109477369395e-01 0.000000000000000000e+00
Cu 1.245069750282091325e+00 2.117950702614036437e-02 0.000000000000000000e+00
Cu 1.244561467168637581e+00 1.218417727657722383e-01 0.000000000000000000e+00
Cu 1.244220847065534041e+00 2.224951063324845379e-01 0.000000000000000000e+00
Cu 1.244060287373563778e+00 3.230940521919727915e-01 0.000000000000000000e+00
Cu 1.244109513128212940e+00 4.236109460491753742e-01 0.000000000000000000e+00
Cu 1.244434186034179435e+00 5.240383044073468888e-01 0.000000000000000000e+00
Cu 1.244992043317261876e+00 6.245125753784441791e-01 0.000000000000000000e+00
Cu 1.245678345132706255e+00 7.251564714959365388e-01 0.000000000000000000e+00
Cu 1.246519509896089062e+00 8.259368278638609118e-01 0.000000000000000000e+00
Cu 1.247551275056626441e+00 9.267736243350551684e-01 0.000000000000000000e+00
Cu 1.359656341424679615e+00 2.200303748389712682e-02 0.000000000000000000e+00
Cu 1.359170817367984396e+00 1.224911568662468975e-01 0.000000000000000000e+00
Cu 1.358899243595105499e+00 2.229268814427512735e-01 0.000000000000000000e+00
Cu 1.358823586963252117e+00 3.232599315902824344e-01 0.000000000000000000e+00
Cu 1.358936997870924035e+00 4.234890399881597323e-01 0.000000000000000000e+00
Cu 1.359216908631134535e+00 5.236852818833839240e-01 0.000000000000000000e+00
Cu 1.359626083254644513e+00 6.239522182520476079e-01 0.000000000000000000e+00
Cu 1.360166075740719238e+00 7.243486347119367785e-01 0.000000000000000000e+00
Cu 1.360875938143442987e+00 8.248747076612312767e-01 0.000000000000000000e+00
Cu 1.361774126108477034e+00 9.254963020370758908e-01 0.000000000000000000e+00
Cu 1.474532639758876718e+00 2.286885063521925526e-02 0.000000000000000000e+00
Cu 1.474120921180930299e+00 1.231995137910431859e-01 0.000000000000000000e+00
Cu 1.473977412417796895e+00 2.234263653768268632e-01 0.000000000000000000e+00
Cu 1.474029791803711520e+00 3.235017771704171152e-01 0.000000000000000000e+00
Cu 1.474203063225455468e+00 4.234540234814692106e-01 0.000000000000000000e+00
Cu 1.474435515374872274e+00 5.233732245775746250e-01 0.000000000000000000e+00
Cu 1.474713099579952003e+00 6.233652126813913341e-01 0.000000000000000000e+00
Cu 1.475080000714023010e+00 7.235053980811865237e-01 0.000000000000000000e+00
Cu 1.475608272399841159e+00 8.238174144478490613e-01 0.000000000000000000e+00
Cu 1.476367267144339745e+00 9.242592876827309123e-01 0.000000000000000000e+00
Cu 1.589643884617561342e+00 2.372536504919290148e-02 0.000000000000000000e+00
Cu 1.589392926261624872e+00 1.239254738134048656e-01 0.000000000000000000e+00
Cu 1.589469933792493572e+00 2.239556465879534719e-01 0.000000000000000000e+00
Cu 1.589724155242722592e+00 3.237818176518905133e-01 0.000000000000000000e+00
Cu 1.590003717726381272e+00 4.234576244187177041e-01 0.000000000000000000e+00
Cu 1.590203088548227228e+00 5.230892387269352461e-01 0.000000000000000000e+00
Cu 1.590315446304132241e+00 6.227959968002304558e-01 0.000000000000000000e+00
Cu 1.590433173926262045e+00 7.226782938259533884e-01 0.000000000000000000e+00
Cu 1.590697887061980342e+00 8.227841668131964381e-01 0.000000000000000000e+00
Cu 1.591254832058269120e+00 9.230764291745892081e-01 0.000000000000000000e+00
Cu 1.704907622797221745e+00 2.446891184591457047e-02 0.000000000000000000e+00
Cu 1.704965215694967728e+00 1.245699287015861606e-01 0.000000000000000000e+00
Cu 1.705406694994290762e+00 2.244044047816957099e-01 0.000000000000000000e+00
Cu 1.705968156061400176e+00 3.239900275043980371e-01 0.000000000000000000e+00
Cu 1.706408482242064872e+00 4.234410674946603725e-01 0.000000000000000000e+00
Cu 1.706584716354575981e+00 5.228647721406015636e-01 0.000000000000000000e+00
Cu 1.706491471242165492e+00 6.223392720310035875e-01 0.000000000000000000e+00
Cu 1.706261197602745083e+00 7.219693940035516455e-01 0.000000000000000000e+00
Cu 1.706126026967572207e+00 8.218651536885510644e-01 0.000000000000000000e+00
Cu 1.706343698964445599e+00 9.220393837602197662e-01 0.000000000000000000e+00
Cu 1.820202318524265284e+00 2.491521089379312298e-02 0.000000000000000000e+00
Cu 1.820833542859702892e+00 1.249459231064937170e-01 0.000000000000000000e+00
Cu 1.821856728456821228e+00 2.245588904225161719e-01 0.000000000000000000e+00
Cu 1.822812814142939608e+00 3.239420182196895426e-01 0.000000000000000000e+00
Cu 1.823406144346157776e+00 4.233283344603037124e-01 0.000000000000000000e+00
Cu 1.823566468443762023e+00 5.227588486411760549e-01 0.000000000000000000e+00
Cu 1.823288554448765808e+00 6.221628850935124744e-01 0.000000000000000000e+00
Cu 1.822632951223576825e+00 7.215798675830742415e-01 0.000000000000000000e+00
Cu 1.821887951602396694e+00 8.212396854963307513e-01 0.000000000000000000e+00
Cu 1.821507600821670403e+00 9.213259294909017516e-01 0.000000000000000000e+00
Cu 1.935321693181004887e+00 2.472001576868319492e-02 0.000000000000000000e+00
Cu 1.937067108173876617e+00 1.246971092385669999e-01 0.000000000000000000e+00
Cu 1.938954370871754707e+00 2.240506331442627397e-01 0.000000000000000000e+00
Cu 1.940232239459276586e+00 3.234336468003666254e-01 0.000000000000000000e+00
Cu 1.940862215274603342e+00 4.230720426985907223e-01 0.000000000000000000e+00
Cu 1.941012416282545283e+00 5.228044260881747896e-01 0.000000000000000000e+00
Cu 1.940677659625524409e+00 6.224569425558404978e-01 0.000000000000000000e+00
Cu 1.939679960768164291e+00 7.218665497779039875e-01 0.000000000000000000e+00
Cu 1.938050220953556391e+00 8.212559081781852788e-01 0.000000000000000000e+00
Cu 1.936536761251508532e+00 9.212740611983980532e-01 0.000000000000000000e+00
Cu 2.049843908125763114e+00 2.308464079507577954e-02 0.000000000000000000e+00
Cu 2.053984929055974629e+00 1.229957219411681041e-01 0.000000000000000000e+00
Cu 2.056731603811843279e+00 2.224543601439003537e-01 0.000000000000000000e+00
Cu 2.057987011829767177e+00 3.224799262574087888e-01 0.000000000000000000e+00
Cu 2.058585494631847812e+00 4.226967527817075965e-01 0.000000000000000000e+00
Cu 2.058729749973220002e+00 5.229632785353602875e-01 0.000000000000000000e+00
Cu 2.058415123626961218e+00 6.231938215336162434e-01 0.000000000000000000e+00
Cu 2.057429440572613455e+00 7.232441111124168209e-01 0.000000000000000000e+00
Cu 2.054929069323687685e+00 8.227345326200142805e-01 0.000000000000000000e+00
Cu 2.051006513025253497e+00 9.226779442394542619e-01 0.000000000000000000e+00
Cu 2.162739636884520422e+00 1.646170243495423749e-02 0.000000000000000000e+00
Cu 2.171819029503933685e+00 1.185666670754367269e-01 0.000000000000000000e+00
Cu 2.174527337863945142e+00 2.202155547495816545e-01 0.000000000000000000e+00
Cu 2.175861446514067765e+00 3.213832579448324123e-01 0.000000000000000000e+00
Cu 2.176463622685619104e+00 4.222916511150276442e-01 0.000000000000000000e+00
Cu 2.176604175670333596e+00 5.231330389037147643e-01 0.000000000000000000e+00
Cu 2.176279349071852387e+00 6.240584624864361496e-01 0.000000000000000000e+00
Cu 2.175211438033500588e+00 7.252570641014729480e-01 0.000000000000000000e+00
Cu 2.172750344613486373e+00 8.269437704105891962e-01 0.000000000000000000e+00
Cu 2.163891667983429024e+00 9.290887053930548811e-01 0.000000000000000000e+00
