200

Cu 0.000000000000000000e+00 5.954458407125690078e-02 0.000000000000000000e+00
Cu 0.000000000000000000e+00 1.533319107558850924e-01 0.000000000000000000e+00
Cu 0.000000000000000000e+00 2.454194899321138490e-01 0.000000000000000000e+00
Cu 0.000000000000000000e+00 3.367472377392149441e-01 0.000000000000000000e+00
Cu 0.000000000000000000e+00 4.278073419627577700e-01 0.000000000000000000e+00
Cu 0.000000000000000000e+00 5.188548630198344114e-01 0.000000000000000000e+00
Cu 0.000000000000000000e+00 6.100987787897205195e-01 0.000000000000000000e+00
Cu 0.000000000000000000e+00 7.017686633986668365e-01 0.000000000000000000e+00
Cu 0.000000000000000000e+00 7.943046129430233471e-01 0.000000000000000000e+00
Cu 0.000000000000000000e+00 8.885589728345983929e-01 0.000000000000000000e+00
Cu 1.375569552878315449e-01 6.558235676854043406e-02 0.000000000000000000e+00
Cu 1.360915441768596468e-01 1.554192462847222567e-01 0.000000000000000000e+00
Cu 1.360692137216006625e-01 2.462946209422719746e-01 0.000000000000000000e+00
Cu 1.360069043838058878e-01 3.371664565995645124e-01 0.000000000000000000e+00
Cu 1.358900889568055992e-01 4.279511652649067854e-01 0.000000000000000000e+00
Cu 1.356999429577276095e-01 5.187691945038672703e-01 0.000000000000000000e+00
Cu 1.354528486627288308e-01 6.097474867766849993e-01 0.000000000000000000e+00
Cu 1.351933954348406020e-01 7.009838060141218019e-01 0.000000000000000000e+00
Cu 1.349543328380919671e-01 7.923624720860146242e-01 0.000000000000000000e+00
Cu 1.361890679046569574e-01 8.828253581799034855e-01 0.000000000000000000e+00
Cu 2.744256660039849915e-01 6.840512130731699059e-02 0.000000000000000000e+00
Cu 2.732415345762495007e-01 1.579229366953822933e-01 0.000000000000000000e+00
Cu 2.726082601045702325e-01 2.477867046609593116e-01 0.000000000000000000e+00
Cu 2.723541392953661711e-01 3.380180421440446281e-01 0.000000000000000000e+00
Cu 2.720580752526403079e-01 4.283475546440587700e-01 0.000000000000000000e+00
Cu 2.716683423758051164e-01 5.187499317956003608e-01 0.000000000000000000e+00
Cu 2.712230289500689451e-01 6.092655498095917999e-01 0.000000000000000000e+00
Cu 2.708257190213779753e-01 6.998554013867643864e-01 0.000000000000000000e+00
Cu 2.709045798410307238e-01 7.902481262361429337e-01 0.000000000000000000e+00
Cu 2.716437792627799386e-01 8.804429417741288511e-01 0.000000000000000000e+00
Cu 4.111970359128110930e-01 7.033255169765420534e-02 0.000000000000000000e+00
Cu 4.102563795632649946e-01 1.597925903891340982e-01 0.000000000000000000e+00
Cu 4.095643375386843754e-01 2.493729609261881031e-01 0.000000000000000000e+00
Cu 4.090965186139649545e-01 3.391315154549298105e-01 0.000000000000000000e+00
Cu 4.086396840578742085e-01 4.289841748078491168e-01 0.000000000000000000e+00
Cu 4.080403383268884632e-01 5.188666202538226857e-01 0.000000000000000000e+00
Cu 4.073743997313584164e-01 6.088351367420923310e-01 0.000000000000000000e+00
Cu 4.068492967157947282e-01 6.988813942890131914e-01 0.000000000000000000e+00
Cu 4.066529859745944275e-01 7.889843247743089094e-01 0.000000000000000000e+00
Cu 4.068691089892955137e-01 8.791847761681519380e-01 0.000000000000000000e+00
Cu 5.479637406888496765e-01 7.182523999409382021e-02 0.000000000000000000e+00
Cu 5.472192400963452608e-01 1.612617881657220642e-01 0.000000000000000000e+00
Cu 5.466229265824996686e-01 2.507557081144823341e-01 0.000000000000000000e+00
Cu 5.461451229020827247e-01 3.403151632058881160e-01 0.000000000000000000e+00
Cu 5.456897688420541126e-01 4.298797350067337097e-01 0.000000000000000000e+00
Cu 5.449262016164196920e-01 5.192570747828290090e-01 0.000000000000000000e+00
Cu 5.439024484409084037e-01 6.086244615088473031e-01 0.000000000000000000e+00
Cu 5.429586802079870989e-01 6.983153355672708784e-01 0.000000000000000000e+00
Cu 5.422368803856992825e-01 7.883634606886132934e-01 0.000000000000000000e+00
Cu 5.418322316958855689e-01 8.786873434479063327e-01 0.000000000000000000e+00
Cu 6.847650125104877139e-01 7.301424905588953240e-02 0.000000000000000000e+00
Cu 6.841929224570004742e-01 1.624283815280631316e-01 0.000000000000000000e+00
Cu 6.837282510389545154e-01 2.518950957900881749e-01 0.000000000000000000e+00
Cu 6.833713163251020628e-01 3.414163921070557106e-01 0.000000000000000000e+00
Cu 6.830007891061202763e-01 4.309197883669678153e-01 0.000000000000000000e+00
Cu 6.825801356903907768e-01 5.202565199087842984e-01 0.000000000000000000e+00
Cu 6.809296074415193134e-01 6.088172615646647579e-01 0.000000000000000000e+00
Cu 6.790190267357478771e-01 6.979798748166923250e-01 0.000000000000000000e+00
Cu 6.775683283692182091e-01 7.883850555886069422e-01 0.000000000000000000e+00
Cu 6.763860100423957356e-01 8.791151468926121648e-01 0.000000000000000000e+00
Cu 8.216380127140949785e-01 7.394022239961621501e-02 0.000000000000000000e+00
Cu 8.212185227477409866e-01 1.633159112251067746e-01 0.000000000000000000e+00
Cu 8.208904277390758342e-01 2.527609634611869271e-01 0.000000000000000000e+00
Cu 8.206459285008091964e-01 3.422926488346740292e-01 0.000000000000000000e+00
Cu 8.205211401060612531e-01 4.319095869379701025e-01 0.000000000000000000e+00
Cu 8.201620873163447678e-01 5.214912067720902655e-01 0.000000000000000000e+00
Cu 8.201872473557808574e-01 6.108646432260574910e-01 0.000000000000000000e+00
Cu 8.147129194326971913e-01 6.972269783532399900e-01 0.000000000000000000e+00
Cu 8.116106868846143518e-01 7.887263934126843568e-01 0.000000000000000000e+00
Cu 8.107212855089060977e-01 8.812972040700096654e-01 0.000000000000000000e+00
Cu 9.586270506027716465e-01 7.462020643449676638e-02 0.000000000000000000e+00
Cu 9.583458089121243972e-01 1.639303549471348986e-01 0.000000000000000000e+00
Cu 9.581259592528299507e-01 2.533204212251835008e-01 0.000000000000000000e+00
Cu 9.580082338058201197e-01 3.428282393410794215e-01 0.000000000000000000e+00
Cu 9.579345877466510784e-01 4.324998362219379389e-01 0.000000000000000000e+00
Cu 9.581725947477580663e-01 5.224256870627013161e-01 0.000000000000000000e+00
Cu 9.573994983689803062e-01 6.126773329153171188e-01 0.000000000000000000e+00
Cu 9.605213768131900531e-01 7.038534658151754941e-01 0.000000000000000000e+00
Cu 9.330441628522877506e-01 7.852836204691484578e-01 0.000000000000000000e+00
Cu 9.512915239721851934e-01 8.793635783492428359e-01 0.000000000000000000e+00
Cu 1.095785985502718995e+00 7.507491527217588501e-02 0.000000000000000000e+00
Cu 1.095624303366397712e+00 1.642865945808761607e-01 0.000000000000000000e+00
Cu 1.095509491624822251e+00 2.535685649079698067e-01 0.000000000000000000e+00
Cu 1.095459934937400126e+00 3.429526407628547546e-01 0.000000000000000000e+00
Cu 1.095577394141327154e+00 4.324857076411898760e-01 0.000000000000000000e+00
Cu 1.095610871696105049e+00 5.222649621455600633e-01 0.000000000000000000e+00
Cu 1.096878512890195001e+00 6.123666571147866611e-01 0.000000000000000000e+00
Cu 1.094406835371466657e+00 7.034362176834054736e-01 0.000000000000000000e+00
Cu 1.122580710464012865e+00 7.844907486348443593e-01 0.000000000000000000e+00
Cu 1.105188449873168111e+00 8.786166443753228306e-01 0.000000000000000000e+00
Cu 1.233164275497637075e+00 7.533798679220150840e-02 0.000000000000000000e+00
Cu 1.233112159981464062e+00 1.644210760776850799e-01 0.000000000000000000e+00
Cu 1.233094602300118581e+00 2.535399521260747746e-01 0.000000000000000000e+00
Cu 1.233174258178289184e+00 3.426913006323436539e-01 0.000000000000000000e+00
Cu 1.233349267876981514e+00 4.318750999769626620e-01 0.000000000000000000e+00
Cu 1.233991181304748386e+00 5.209950430833850676e-01 0.000000000000000000e+00
Cu 1.234447496610638240e+00 6.099196639995246860e-01 0.000000000000000000e+00
Cu 1.240581148632137420e+00 6.958270047306276407e-01 0.000000000000000000e+00
Cu 1.244464831854335651e+00 7.869065749240569119e-01 0.000000000000000000e+00
Cu 1.246255929890599967e+00 8.790975558228785181e-01 0.000000000000000000e+00
Cu 1.370799048747732840e+00 7.545681196274851843e-02 0.000000000000000000e+00
Cu 1.370846140837486349e+00 1.643933752917363378e-01 0.000000000000000000e+00
Cu 1.370954912814747795e+00 2.533110242697922398e-01 0.000000000000000000e+00
Cu 1.371166631027464167e+00 3.421667025338198109e-01 0.000000000000000000e+00
Cu 1.371617733801481664e+00 4.308901021818689614e-01 0.000000000000000000e+00
Cu 1.372329445245443980e+00 5.193904207281353491e-01 0.000000000000000000e+00
Cu 1.374475426688048341e+00 6.071329559226068540e-01 0.000000000000000000e+00
Cu 1.377065798305066480e+00 6.955499463095027313e-01 0.000000000000000000e+00
Cu 1.379367622906070956e+00 7.852974503428548081e-01 0.000000000000000000e+00
Cu 1.381476249911378851e+00 8.754240531442701867e-01 0.000000000000000000e+00
Cu 1.508697072176371945e+00 7.548617019589780319e-02 0.000000000000000000e+00
Cu 1.508845761959925813e+00 1.642776658101053611e-01 0.000000000000000000e+00
Cu 1.509101771111687640e+00 2.529898930250913391e-01 0.000000000000000000e+00
Cu 1.509512167797726789e+00 3.415453143300311023e-01 0.000000000000000000e+00
Cu 1.510126607591393721e+00 4.298937877785077855e-01 0.000000000000000000e+00
Cu 1.511213609154074211e+00 5.179526154733368193e-01 0.000000000000000000e+00
Cu 1.512712079120754671e+00 6.060505000629612393e-01 0.000000000000000000e+00
Cu 1.514326443659912647e+00 6.946379192305951467e-01 0.000000000000000000e+00
Cu 1.515925309220521155e+00 7.837693243249267416e-01 0.000000000000000000e+00
Cu 1.517365875736690572e+00 8.732872963638977915e-01 0.000000000000000000e+00
Cu 1.646829152635947757e+00 7.547215898690527724e-02 0.000000000000000000e+00
Cu 1.647092967450438650e+00 1.641445294497080043e-01 0.000000000000000000e+00
Cu 1.647539839190081734e+00 2.526784917570599198e-01 0.000000000000000000e+00
Cu 1.648148018865979836e+00 3.409921495025930449e-01 0.000000000000000000e+00
Cu 1.648941784961164725e+00 4.290697455489017598e-01 0.000000000000000000e+00
Cu 1.649909991099398177e+00 5.170446634965681909e-01 0.000000000000000000e+00
Cu 1.650964567795120352e+00 6.051723679742243567e-01 0.000000000000000000e+00
Cu 1.652031503973527604e+00 6.936512225951142474e-01 0.000000000000000000e+00
Cu 1.653078023063057067e+00 7.825390906352687193e-01 0.000000000000000000e+00
Cu 1.654035726837859599e+00 8.717483443137066246e-01 0.000000000000000000e+00
Cu 1.785121664947813436e+00 7.542870627484395130e-02 0.000000000000000000e+00
Cu 1.785546245127848319e+00 1.640299347250039341e-01 0.000000000000000000e+00
Cu 1.786240391372062808e+00 2.524371338291886424e-01 0.000000000000000000e+00
Cu 1.787089213618934025e+00 3.405723145088112580e-01 0.000000000000000000e+00
Cu 1.787977487837737245e+00 4.284873977055843608e-01 0.000000000000000000e+00
Cu 1.788798542528664326e+00 5.163514266218248716e-01 0.000000000000000000e+00
Cu 1.789495712439239439e+00 6.043760258717214562e-01 0.000000000000000000e+00
Cu 1.790088418280212812e+00 6.927260723701664791e-01 0.000000000000000000e+00
Cu 1.790643291062602449e+00 7.814602502451972743e-01 0.000000000000000000e+00
Cu 1.791231115637278437e+00 8.704900470263553514e-01 0.000000000000000000e+00
Cu 1.923457209794205758e+00 7.530722888222374234e-02 0.000000000000000000e+00
Cu 1.924139723247985545e+00 1.639044094680961183e-01 0.000000000000000000e+00
Cu 1.925193948129186206e+00 2.522389095930682168e-01 0.000000000000000000e+00
Cu 1.926356852180390655e+00 3.402535248865339312e-01 0.000000000000000000e+00
Cu 1.927377838994694059e+00 4.280437640316467340e-01 0.000000000000000000e+00
Cu 1.928078571237493266e+00 5.157888175597818980e-01 0.000000000000000000e+00
Cu 1.928417916770112317e+00 6.036864517301048227e-01 0.000000000000000000e+00
Cu 1.928500786892046737e+00 6.919052325784893487e-01 0.000000000000000000e+00
Cu 1.928524579352344892e+00 7.805255829801597267e-01 0.000000000000000000e+00
Cu 1.928716646577453453e+00 8.694679887814154018e-01 0.000000000000000000e+00
Cu 2.061664375028342544e+00 7.496423595262884099e-02 0.000000000000000000e+00
Cu 2.062797618775043418e+00 1.636401754528031827e-01 0.000000000000000000e+00
Cu 2.064412497609041441e+00 2.519438806620689086e-01 0.000000000000000000e+00
Cu 2.066033549551521631e+00 3.398802468282746680e-01 0.000000000000000000e+00
Cu 2.067264453776216815e+00 4.276312824981860494e-01 0.000000000000000000e+00
Cu 2.067874042144723923e+00 5.153672866941654274e-01 0.000000000000000000e+00
Cu 2.067828347387131949e+00 6.032078534533797942e-01 0.000000000000000000e+00
Cu 2.067296647945301213e+00 6.913134829188958275e-01 0.000000000000000000e+00
Cu 2.066627901694914282e+00 7.798491788983893391e-01 0.000000000000000000e+00
Cu 2.066264773421484069e+00 8.687975733115287369e-01 0.000000000000000000e+00
Cu 2.199482079643672705e+00 7.411193025244071364e-02 0.000000000000000000e+00
Cu 2.201445694979409673e+00 1.629689771989025759e-01 0.000000000000000000e+00
Cu 2.203971708751475855e+00 2.512472828489322740e-01 0.000000000000000000e+00
Cu 2.206218964770055635e+00 3.391752382237429031e-01 0.000000000000000000e+00
Cu 2.207670623689121925e+00 4.271191253251819808e-01 0.000000000000000000e+00
Cu 2.208216099831477486e+00 5.151564448156593645e-01 0.000000000000000000e+00
Cu 2.207824682161056540e+00 6.031702163953227558e-01 0.000000000000000000e+00
Cu 2.206549917556026585e+00 6.912297934872491112e-01 0.000000000000000000e+00
Cu 2.204866264631920370e+00 7.796867356057169962e-01 0.000000000000000000e+00
Cu 2.203586841855369904e+00 8.687516729732163157e-01 0.000000000000000000e+00
Cu 2.336430653455302320e+00 7.219047377034032431e-02 0.000000000000000000e+00
Cu 2.340071797144961163e+00 1.613619908980639950e-01 0.000000000000000000e+00
Cu 2.344088575436322763e+00 2.495670541229230155e-01 0.000000000000000000e+00
Cu 2.346958534245612960e+00 3.377722396148348794e-01 0.000000000000000000e+00
Cu 2.348469549208905160e+00 4.264146692279482953e-01 0.000000000000000000e+00
Cu 2.348974975088401695e+00 5.152004255921955878e-01 0.000000000000000000e+00
Cu 2.348444748113611258e+00 6.038992475573973229e-01 0.000000000000000000e+00
Cu 2.346470179544700496e+00 6.922102420211156959e-01 0.000000000000000000e+00
Cu 2.343217600457151661e+00 7.805534881523059632e-01 0.000000000000000000e+00
Cu 2.340188297615621416e+00 8.698795066858096003e-01 0.000000000000000000e+00
Cu 2.471338779030691324e+00 6.785663492771609739e-02 0.000000000000000000e+00
Cu 2.479058475359670055e+00 1.575051292733616881e-01 0.000000000000000000e+00
Cu 2.485101812764131779e+00 2.460032609901949552e-01 0.000000000000000000e+00
Cu 2.487909543485761432e+00 3.356435098251157045e-01 0.000000000000000000e+00
Cu 2.489477849720912239e+00 4.255122366343204732e-01 0.000000000000000000e+00
Cu 2.489961386687728151e+00 5.154565309689681518e-01 0.000000000000000000e+00
Cu 2.489333128476397317e+00 6.053839880761366921e-01 0.000000000000000000e+00
Cu 2.487381952085760073e+00 6.951259946944998713e-01 0.000000000000000000e+00
Cu 2.482060668054934194e+00 7.837557734965013845e-01 0.000000000000000000e+00
Cu 2.474893571559755312e+00 8.735251341638008427e-01 0.000000000000000000e+00
Cu 2.599860017387243261e+00 5.436599985828219350e-02 0.000000000000000000e+00
Cu 2.620328697137070950e+00 1.483140331562470826e-01 0.000000000000000000e+00
Cu 2.625708164642949427e+00 2.414105673728059731e-01 0.000000000000000000e+00
Cu 2.628991750041522746e+00 3.332789929617606117e-01 0.000000000000000000e+00
Cu 2.630551349584986376e+00 4.245619628690691094e-01 0.000000000000000000e+00
Cu 2.631024432169221772e+00 5.157230274748214605e-01 0.000000000000000000e+00
Cu 2.630386436092728264e+00 6.070837343721993129e-01 0.000000000000000000e+00
Cu 2.627954291626047212e+00 6.990938255701428794e-01 0.000000000000000000e+00
Cu 2.623302910446088543e+00 7.923538112268819766e-01 0.000000000000000000e+00
Cu 2.603391748543683271e+00 8.864852290123660383e-01 0.000000000000000000e+00
