200

Cu 0.000000000000000000e+00 5.854777820468871040e-03 0.000000000000000000e+00
Cu 0.000000000000000000e+00 1.099237803652284157e-01 0.000000000000000000e+00
Cu 0.000000000000000000e+00 2.138358273620619976e-01 0.000000000000000000e+00
Cu 0.000000000000000000e+00 3.176893904613889985e-01 0.000000000000000000e+00
Cu 0.000000000000000000e+00 4.215326601252414873e-01 0.000000000000000000e+00
Cu 0.000000000000000000e+00 5.253838502862969717e-01 0.000000000000000000e+00
Cu 0.000000000000000000e+00 6.292547515237373323e-01 0.000000000000000000e+00
Cu 0.000000000000000000e+00 7.331607240897837219e-01 0.000000000000000000e+00
Cu 0.000000000000000000e+00 8.371432743871840554e-01 0.000000000000000000e+00
Cu 0.000000000000000000e+00 9.412896031614412795e-01 0.000000000000000000e+00
Cu 1.089677686387422323e-01 6.692514855720005373e-03 0.000000000000000000e+00
Cu 1.086606665461157389e-01 1.102139318105380406e-01 0.000000000000000000e+00
Cu 1.086082959715472529e-01 2.139615883279452346e-01 0.000000000000000000e+00
Cu 1.085744974237237842e-01 3.177519077121286339e-01 0.000000000000000000e+00
Cu 1.085434709803846515e-01 4.215553506444558174e-01 0.000000000000000000e+00
Cu 1.085139006531767730e-01 5.253732292778122703e-01 0.000000000000000000e+00
Cu 1.084869556607930691e-01 6.292069259530609360e-01 0.000000000000000000e+00
Cu 1.084662081076089579e-01 7.330541763239143416e-01 0.000000000000000000e+00
Cu 1.084683627194282796e-01 8.368832798125170891e-01 0.000000000000000000e+00
Cu 1.087156404701729723e-01 9.405190870833054495e-01 0.000000000000000000e+00
Cu 2.178410691056963389e-01 7.131127805843274180e-03 0.000000000000000000e+00
Cu 2.175270781203562931e-01 1.106351726842940281e-01 0.000000000000000000e+00
Cu 2.173329643068491746e-01 2.142186076008619489e-01 0.000000000000000000e+00
Cu 2.172326271529356756e-01 3.179003136085499226e-01 0.000000000000000000e+00
Cu 2.171567539250870427e-01 4.216248917070962166e-01 0.000000000000000000e+00
Cu 2.170944307617566349e-01 5.253730009073102059e-01 0.000000000000000000e+00
Cu 2.170509146815120527e-01 6.291324002491516243e-01 0.000000000000000000e+00
Cu 2.170413079150566582e-01 7.328756441846174807e-01 0.000000000000000000e+00
Cu 2.171284968191490306e-01 8.365469994379867158e-01 0.000000000000000000e+00
Cu 2.173356620044487042e-01 9.401673046582652571e-01 0.000000000000000000e+00
Cu 3.267261614242096823e-01 7.530609006743257602e-03 0.000000000000000000e+00
Cu 3.264144046216581052e-01 1.110070577737200109e-01 0.000000000000000000e+00
Cu 3.261774420509504502e-01 2.145362326682737908e-01 0.000000000000000000e+00
Cu 3.260125939503382142e-01 3.181207337530065904e-01 0.000000000000000000e+00
Cu 3.258890751712060774e-01 4.217440474970329811e-01 0.000000000000000000e+00
Cu 3.257876746983919269e-01 5.253885993834538359e-01 0.000000000000000000e+00
Cu 3.257269407394214888e-01 6.290466008451814917e-01 0.000000000000000000e+00
Cu 3.257323675837999200e-01 7.326915465750225565e-01 0.000000000000000000e+00
Cu 3.258098199955231644e-01 8.363057129815701929e-01 0.000000000000000000e+00
Cu 3.259567534249321885e-01 9.399012568205040719e-01 0.000000000000000000e+00
Cu 4.356752017206749206e-01 7.931620809085377158e-03 0.000000000000000000e+00
Cu 4.353555137983966539e-01 1.113698091272073282e-01 0.000000000000000000e+00
Cu 4.351042306338602228e-01 2.148559584811056689e-01 0.000000000000000000e+00
Cu 4.349179961547647855e-01 3.183805619176874324e-01 0.000000000000000000e+00
Cu 4.347769447217063599e-01 4.219202750597194074e-01 0.000000000000000000e+00
Cu 4.346392781063658228e-01 5.254399588868998716e-01 0.000000000000000000e+00
Cu 4.345278330809380085e-01 6.289716336498237803e-01 0.000000000000000000e+00
Cu 4.345026843568055019e-01 7.325447494269733406e-01 0.000000000000000000e+00
Cu 4.345443497968812241e-01 8.361313386082798171e-01 0.000000000000000000e+00
Cu 4.346197408228033021e-01 9.397012004200818724e-01 0.000000000000000000e+00
Cu 5.447232567868930397e-01 8.352484974146449567e-03 0.000000000000000000e+00
Cu 5.443874465723441691e-01 1.117351208822593978e-01 0.000000000000000000e+00
Cu 5.441252491663255419e-01 2.151702767494688417e-01 0.000000000000000000e+00
Cu 5.439372474475778763e-01 3.186456091212659381e-01 0.000000000000000000e+00
Cu 5.438112213734752620e-01 4.221359689745589061e-01 0.000000000000000000e+00
Cu 5.437106771790984894e-01 5.255916336844486114e-01 0.000000000000000000e+00
Cu 5.435035664638266928e-01 6.289305505575217836e-01 0.000000000000000000e+00
Cu 5.433303617265297092e-01 7.323954104669824217e-01 0.000000000000000000e+00
Cu 5.433308875013116435e-01 8.360217604380442147e-01 0.000000000000000000e+00
Cu 5.433561611917280265e-01 9.396200058362139673e-01 0.000000000000000000e+00
Cu 6.539057594805138818e-01 8.801765297326779106e-03 0.000000000000000000e+00
Cu 6.535455594597807671e-01 1.121102206592060613e-01 0.000000000000000000e+00
Cu 6.532662357296092903e-01 2.154770210032687372e-01 0.000000000000000000e+00
Cu 6.530734853062764023e-01 3.188927339722029686e-01 0.000000000000000000e+00
Cu 6.529687224267903822e-01 4.223428973905364869e-01 0.000000000000000000e+00
Cu 6.529268953271464282e-01 5.257964126707076469e-01 0.000000000000000000e+00
Cu 6.528971219450425689e-01 6.291711422737990000e-01 0.000000000000000000e+00
Cu 6.522795733174894250e-01 7.321188586316446090e-01 0.000000000000000000e+00
Cu 6.518973659097034856e-01 8.359182280764412276e-01 0.000000000000000000e+00
Cu 6.523323717207190064e-01 9.396949333061053178e-01 0.000000000000000000e+00
Cu 7.632590065559653469e-01 9.288623047851746195e-03 0.000000000000000000e+00
Cu 7.628660936334853426e-01 1.125034522530756337e-01 0.000000000000000000e+00
Cu 7.625610015280890330e-01 2.157801277003355833e-01 0.000000000000000000e+00
Cu 7.623530986464831516e-01 3.191113219061059714e-01 0.000000000000000000e+00
Cu 7.622483565909641268e-01 4.224920263652708341e-01 0.000000000000000000e+00
Cu 7.622535731602666509e-01 5.259224481441491239e-01 0.000000000000000000e+00
Cu 7.623077071537418536e-01 6.294060879615394066e-01 0.000000000000000000e+00
Cu 7.625284008912754929e-01 7.329293476377437555e-01 0.000000000000000000e+00
Cu 7.592336499577414521e-01 8.351444314060584295e-01 0.000000000000000000e+00
Cu 7.622049040628052774e-01 9.390081115348146712e-01 0.000000000000000000e+00
Cu 8.728186357341211066e-01 9.823773122686505974e-03 0.000000000000000000e+00
Cu 8.723859730649519140e-01 1.129258513110433654e-01 0.000000000000000000e+00
Cu 8.720495998177046904e-01 2.160886931917735398e-01 0.000000000000000000e+00
Cu 8.718198199074648214e-01 3.193028299903403200e-01 0.000000000000000000e+00
Cu 8.717074897629741859e-01 4.225632355527639272e-01 0.000000000000000000e+00
Cu 8.717148760390109885e-01 5.258712891180692406e-01 0.000000000000000000e+00
Cu 8.719014618894286306e-01 6.292320863444469392e-01 0.000000000000000000e+00
Cu 8.721352044484677046e-01 7.326285129545559993e-01 0.000000000000000000e+00
Cu 8.760857045226038142e-01 8.346753524298178295e-01 0.000000000000000000e+00
Cu 8.738792790591587423e-01 9.384222749432135080e-01 0.000000000000000000e+00
Cu 9.826172207064658437e-01 1.041837231869729638e-02 0.000000000000000000e+00
Cu 9.821412709897177074e-01 1.133900178068091708e-01 0.000000000000000000e+00
Cu 9.817745269649698070e-01 2.164146837015278324e-01 0.000000000000000000e+00
Cu 9.815284999160108770e-01 3.194758443537631387e-01 0.000000000000000000e+00
Cu 9.814172106024888764e-01 4.225591253248690005e-01 0.000000000000000000e+00
Cu 9.814745068181215393e-01 5.256388932818438775e-01 0.000000000000000000e+00
Cu 9.817481633239879546e-01 6.286395852483812607e-01 0.000000000000000000e+00
Cu 9.828274481682923724e-01 7.312151573351501899e-01 0.000000000000000000e+00
Cu 9.838595573968156316e-01 8.346575326035174935e-01 0.000000000000000000e+00
Cu 9.842452849678682281e-01 9.380849087982490175e-01 0.000000000000000000e+00
Cu 1.092681326200774850e+00 1.108222578204805416e-02 0.000000000000000000e+00
Cu 1.092164561519404886e+00 1.139088424735757443e-01 0.000000000000000000e+00
Cu 1.091777506857561031e+00 2.167723245705552582e-01 0.000000000000000000e+00
Cu 1.091530796488772381e+00 3.196460487749817614e-01 0.000000000000000000e+00
Cu 1.091446945757065690e+00 4.225055720821371819e-01 0.000000000000000000e+00
Cu 1.091566943088305042e+00 5.253158789359108072e-01 0.000000000000000000e+00
Cu 1.092020720453815708e+00 6.280157057347175442e-01 0.000000000000000000e+00
Cu 1.092656435352724165e+00 7.308647541831790884e-01 0.000000000000000000e+00
Cu 1.093319467791412647e+00 8.339025466133829223e-01 0.000000000000000000e+00
Cu 1.094146505973070838e+00 9.369188761770069762e-01 0.000000000000000000e+00
Cu 1.203027665074387187e+00 1.182132821853251053e-02 0.000000000000000000e+00
Cu 1.202481648847407714e+00 1.144938288242333541e-01 0.000000000000000000e+00
Cu 1.202094496795631962e+00 2.171782866923983035e-01 0.000000000000000000e+00
Cu 1.201869589959934759e+00 3.198392488819751245e-01 0.000000000000000000e+00
Cu 1.201822194683403788e+00 4.224562959102224902e-01 0.000000000000000000e+00
Cu 1.201985798600555766e+00 5.250260451718529175e-01 0.000000000000000000e+00
Cu 1.202334633191538327e+00 6.276258964587239086e-01 0.000000000000000000e+00
Cu 1.202811878408782897e+00 7.303185588912526338e-01 0.000000000000000000e+00
Cu 1.203437665679112145e+00 8.330781461858249859e-01 0.000000000000000000e+00
Cu 1.204242320741296890e+00 9.358476610625946490e-01 0.000000000000000000e+00
Cu 1.313658901103252452e+00 1.263358895787469044e-02 0.000000000000000000e+00
Cu 1.313108101300100916e+00 1.151508724001694406e-01 0.000000000000000000e+00
Cu 1.312753292536746219e+00 2.176473573289233465e-01 0.000000000000000000e+00
Cu 1.312575604728194012e+00 3.200838317926840149e-01 0.000000000000000000e+00
Cu 1.312563789886499688e+00 4.224572124435978515e-01 0.000000000000000000e+00
Cu 1.312700169967125241e+00 5.248114082864137053e-01 0.000000000000000000e+00
Cu 1.312963727317350004e+00 6.272090319914026546e-01 0.000000000000000000e+00
Cu 1.313360536983942062e+00 7.296843383238873493e-01 0.000000000000000000e+00
Cu 1.313922060016948556e+00 8.322326478326232957e-01 0.000000000000000000e+00
Cu 1.314669711312332234e+00 9.348248276314815586e-01 0.000000000000000000e+00
Cu 1.424560437450067552e+00 1.350166033256096701e-02 0.000000000000000000e+00
Cu 1.424047988950016830e+00 1.158714266991994341e-01 0.000000000000000000e+00
Cu 1.423774777697242255e+00 2.181796570362758425e-01 0.000000000000000000e+00
Cu 1.423682747662358361e+00 3.203880951097388685e-01 0.000000000000000000e+00
Cu 1.423713692975226541e+00 4.225126026114327527e-01 0.000000000000000000e+00
Cu 1.423822798487782704e+00 5.246128340325454387e-01 0.000000000000000000e+00
Cu 1.424002689215312145e+00 6.267605058173748578e-01 0.000000000000000000e+00
Cu 1.424289318180410824e+00 7.290061458240798542e-01 0.000000000000000000e+00
Cu 1.424739927143478635e+00 8.313623493479637139e-01 0.000000000000000000e+00
Cu 1.425411367996459067e+00 9.337945480955009980e-01 0.000000000000000000e+00
Cu 1.535699296175544903e+00 1.438291715916113246e-02 0.000000000000000000e+00
Cu 1.535296437484538812e+00 1.166196745302038179e-01 0.000000000000000000e+00
Cu 1.535180270021246463e+00 2.187417173776335932e-01 0.000000000000000000e+00
Cu 1.535236171624115631e+00 3.207204019591785027e-01 0.000000000000000000e+00
Cu 1.535348969463538937e+00 4.225907730090345260e-01 0.000000000000000000e+00
Cu 1.535439569700985940e+00 5.244272249435004696e-01 0.000000000000000000e+00
Cu 1.535504753936438371e+00 6.263149087261764558e-01 0.000000000000000000e+00
Cu 1.535617146977050318e+00 7.283249087382754894e-01 0.000000000000000000e+00
Cu 1.535886510202764121e+00 8.304891132640881413e-01 0.000000000000000000e+00
Cu 1.536424490563160106e+00 9.327773437109212473e-01 0.000000000000000000e+00
Cu 1.647023140760504489e+00 1.519670132501523691e-02 0.000000000000000000e+00
Cu 1.646847411752230039e+00 1.173175467499940894e-01 0.000000000000000000e+00
Cu 1.647002015182702506e+00 2.192471745879485678e-01 0.000000000000000000e+00
Cu 1.647288947914557378e+00 3.209973677701499217e-01 0.000000000000000000e+00
Cu 1.647525494389049827e+00 4.226498230666617117e-01 0.000000000000000000e+00
Cu 1.647603325080147396e+00 5.242810607731686057e-01 0.000000000000000000e+00
Cu 1.647519970134186273e+00 6.259464232881056800e-01 0.000000000000000000e+00
Cu 1.647378706717287589e+00 7.277211561733012424e-01 0.000000000000000000e+00
Cu 1.647357557727758826e+00 8.296846301118590006e-01 0.000000000000000000e+00
Cu 1.647651172389653418e+00 9.318459143062025607e-01 0.000000000000000000e+00
Cu 1.758452651781364562e+00 1.580330366108026116e-02 0.000000000000000000e+00
Cu 1.758710218987286300e+00 1.178216739088982501e-01 0.000000000000000000e+00
Cu 1.759301328761712524e+00 2.195332555126281449e-01 0.000000000000000000e+00
Cu 1.759883614460151735e+00 3.210802610633872733e-01 0.000000000000000000e+00
Cu 1.760235986689953069e+00 4.226338668596460457e-01 0.000000000000000000e+00
Cu 1.760304961547300540e+00 5.242205753223396769e-01 0.000000000000000000e+00
Cu 1.760088189534477099e+00 6.257838941927654774e-01 0.000000000000000000e+00
Cu 1.759634678028305421e+00 7.273494712943164853e-01 0.000000000000000000e+00
Cu 1.759161824226232573e+00 8.290867019200220955e-01 0.000000000000000000e+00
Cu 1.759009237863360609e+00 9.311352030553318171e-01 0.000000000000000000e+00
Cu 1.869851831186549740e+00 1.594287709156030908e-02 0.000000000000000000e+00
Cu 1.870953880941372827e+00 1.178618490859261736e-01 0.000000000000000000e+00
Cu 1.872185501378184513e+00 2.193245736512971777e-01 0.000000000000000000e+00
Cu 1.873000400510659524e+00 3.208197273227921253e-01 0.000000000000000000e+00
Cu 1.873377354236411385e+00 4.225093625783230555e-01 0.000000000000000000e+00
Cu 1.873440517193600385e+00 5.242710691369149023e-01 0.000000000000000000e+00
Cu 1.873187643739821828e+00 6.259683392933329538e-01 0.000000000000000000e+00
Cu 1.872490284256616677e+00 7.274778298780849584e-01 0.000000000000000000e+00
Cu 1.871366220737501918e+00 8.289597703786764082e-01 0.000000000000000000e+00
Cu 1.870360076130259230e+00 9.309003371366704194e-01 0.000000000000000000e+00
Cu 1.980953299315483473e+00 1.502047285054329898e-02 0.000000000000000000e+00
Cu 1.983831467495072776e+00 1.168208840998860160e-01 0.000000000000000000e+00
Cu 1.985668830151916753e+00 2.183181547662867428e-01 0.000000000000000000e+00
Cu 1.986458867843587939e+00 3.202324131866800538e-01 0.000000000000000000e+00
Cu 1.986802603371688569e+00 4.222982145004965937e-01 0.000000000000000000e+00
Cu 1.986862191099227681e+00 5.244029777350892596e-01 0.000000000000000000e+00
Cu 1.986635669079610977e+00 6.264757856552778392e-01 0.000000000000000000e+00
Cu 1.985956948925642340e+00 7.284027041771706790e-01 0.000000000000000000e+00
Cu 1.984221301218870082e+00 8.299159847991437466e-01 0.000000000000000000e+00
Cu 1.981433425643924995e+00 9.317322774452558853e-01 0.000000000000000000e+00
Cu 2.091177851074644600e+00 1.045873499138638349e-02 0.000000000000000000e+00
Cu 2.097446289884405957e+00 1.138088684680786250e-01 0.000000000000000000e+00
Cu 2.099261361180329022e+00 2.168387658592588751e-01 0.000000000000000000e+00
Cu 2.100086502444947101e+00 3.195425196105567411e-01 0.000000000000000000e+00
Cu 2.100429017105013063e+00 4.220668145187846387e-01 0.000000000000000000e+00
Cu 2.100486340378534766e+00 5.245427334802338359e-01 0.000000000000000000e+00
Cu 2.100256935179463547e+00 6.270751226107018628e-01 0.000000000000000000e+00
Cu 2.099540369374548465e+00 7.297934366810105988e-01 0.000000000000000000e+00
Cu 2.097826358828557058e+00 8.328409343635568840e-01 0.000000000000000000e+00
Cu 2.091648963983201437e+00 9.362079374541389942e-01 0.000000000000000000e+00
