200

Cu 0.000000000000000000e+00 6.463833066710510111e-02 0.000000000000000000e+00
Cu 0.000000000000000000e+00 1.574383104927844779e-01 0.000000000000000000e+00
Cu 0.000000000000000000e+00 2.483905903066806198e-01 0.000000000000000000e+00
Cu 0.000000000000000000e+00 3.385224708377397862e-01 0.000000000000000000e+00
Cu 0.000000000000000000e+00 4.283637587976985572e-01 0.000000000000000000e+00
Cu 0.000000000000000000e+00 5.181900525005265212e-01 0.000000000000000000e+00
Cu 0.000000000000000000e+00 6.082280819688937745e-01 0.000000000000000000e+00
Cu 0.000000000000000000e+00 6.987261871696939242e-01 0.000000000000000000e+00
Cu 0.000000000000000000e+00 7.901581928376193442e-01 0.000000000000000000e+00
Cu 0.000000000000000000e+00 8.834552706358798080e-01 0.000000000000000000e+00
Cu 1.403180415587114427e-01 7.108055650567117467e-02 0.000000000000000000e+00
Cu 1.388055910817681815e-01 1.596637511733112469e-01 0.000000000000000000e+00
Cu 1.387941643620101140e-01 2.493244496781848452e-01 0.000000000000000000e+00
Cu 1.387291703500007356e-01 3.389693136028030795e-01 0.000000000000000000e+00
Cu 1.386040368594853023e-01 4.285160203225306663e-01 0.000000000000000000e+00
Cu 1.383973976047880861e-01 5.180962528241825904e-01 0.000000000000000000e+00
Cu 1.381276082150827145e-01 6.078494215203756879e-01 0.000000000000000000e+00
Cu 1.378449778648089541e-01 6.978840000475831085e-01 0.000000000000000000e+00
Cu 1.375773980637530758e-01 7.880825217130741356e-01 0.000000000000000000e+00
Cu 1.388531410196802984e-01 8.773291238697397132e-01 0.000000000000000000e+00
Cu 2.799204313257999122e-01 7.408581842708664156e-02 0.000000000000000000e+00
Cu 2.787103024647273330e-01 1.623080635087522650e-01 0.000000000000000000e+00
Cu 2.780666501301021776e-01 2.509005133639827245e-01 0.000000000000000000e+00
Cu 2.778088893314636931e-01 3.398694227385620215e-01 0.000000000000000000e+00
Cu 2.774936346524478625e-01 4.289327693354745286e-01 0.000000000000000000e+00
Cu 2.770648527022865903e-01 5.180670486557498178e-01 0.000000000000000000e+00
Cu 2.765643842549773135e-01 6.073239798943262935e-01 0.000000000000000000e+00
Cu 2.761085293378532923e-01 6.966751443839366287e-01 0.000000000000000000e+00
Cu 2.761575913197436005e-01 7.858392279131790614e-01 0.000000000000000000e+00
Cu 2.769126411979263014e-01 8.747908288011244649e-01 0.000000000000000000e+00
Cu 4.194292415263684015e-01 7.612283841502312520e-02 0.000000000000000000e+00
Cu 4.184713254546529315e-01 1.642772631552359419e-01 0.000000000000000000e+00
Cu 4.177684333069311418e-01 2.525642488680910347e-01 0.000000000000000000e+00
Cu 4.172914438665661918e-01 3.410373563896540450e-01 0.000000000000000000e+00
Cu 4.168115820199679855e-01 4.296009197938303603e-01 0.000000000000000000e+00
Cu 4.161323432378449261e-01 5.181659497533590564e-01 0.000000000000000000e+00
Cu 4.153097540464202875e-01 6.068024561983185183e-01 0.000000000000000000e+00
Cu 4.146119708483512190e-01 6.955640538307872323e-01 0.000000000000000000e+00
Cu 4.143187701191460848e-01 7.844619927440726892e-01 0.000000000000000000e+00
Cu 4.145588017333610154e-01 8.734980558030472908e-01 0.000000000000000000e+00
Cu 5.589318716608876469e-01 7.769052507574468469e-02 0.000000000000000000e+00
Cu 5.581776915813052575e-01 1.658189191636732229e-01 0.000000000000000000e+00
Cu 5.575739116334524903e-01 2.540121910867315647e-01 0.000000000000000000e+00
Cu 5.570854828512500356e-01 3.422754872030612794e-01 0.000000000000000000e+00
Cu 5.566086504545922908e-01 4.305400757380247745e-01 0.000000000000000000e+00
Cu 5.557713676011312165e-01 5.185685247367110007e-01 0.000000000000000000e+00
Cu 5.543315407329973965e-01 6.063648082906438752e-01 0.000000000000000000e+00
Cu 5.526720676450294079e-01 6.944845764018459100e-01 0.000000000000000000e+00
Cu 5.514357370730291752e-01 7.834175617690639637e-01 0.000000000000000000e+00
Cu 5.510487346731782754e-01 8.730823329809950240e-01 0.000000000000000000e+00
Cu 6.984653957946769243e-01 7.893041153875587912e-02 0.000000000000000000e+00
Cu 6.978913118240687163e-01 1.670382335967411092e-01 0.000000000000000000e+00
Cu 6.974234713261330265e-01 2.552045772892908571e-01 0.000000000000000000e+00
Cu 6.970624732920537303e-01 3.434304698324069371e-01 0.000000000000000000e+00
Cu 6.966708091666879987e-01 4.316339525010264855e-01 0.000000000000000000e+00
Cu 6.961898782049840140e-01 5.196248561865544069e-01 0.000000000000000000e+00
Cu 6.942861764128024360e-01 6.065323645022512311e-01 0.000000000000000000e+00
Cu 6.903520046254471021e-01 6.929027448082792917e-01 0.000000000000000000e+00
Cu 6.861998223844726352e-01 7.814003252080138351e-01 0.000000000000000000e+00
Cu 6.839582955530558728e-01 8.732042917425076878e-01 0.000000000000000000e+00
Cu 8.380648332242814913e-01 7.988592868800872826e-02 0.000000000000000000e+00
Cu 8.376506091786299901e-01 1.679594440685389101e-01 0.000000000000000000e+00
Cu 8.373272703791759808e-01 2.561090591291682594e-01 0.000000000000000000e+00
Cu 8.370808318038992502e-01 3.443518511125236436e-01 0.000000000000000000e+00
Cu 8.369550720606009353e-01 4.326844982365751213e-01 0.000000000000000000e+00
Cu 8.365623391755789839e-01 5.209570984823505002e-01 0.000000000000000000e+00
Cu 8.364268234885570141e-01 6.088579866024762532e-01 0.000000000000000000e+00
Cu 8.301427538746233292e-01 6.926599372196976523e-01 0.000000000000000000e+00
Cu 8.190114229348789410e-01 7.783745661902000679e-01 0.000000000000000000e+00
Cu 8.078149313679268140e-01 8.738648517034025565e-01 0.000000000000000000e+00
Cu 9.777722490666633792e-01 8.057345641935236003e-02 0.000000000000000000e+00
Cu 9.775049011878333971e-01 1.685866072128466564e-01 0.000000000000000000e+00
Cu 9.772953326107732819e-01 2.566868027950600650e-01 0.000000000000000000e+00
Cu 9.771884612104307921e-01 3.449138221293124862e-01 0.000000000000000000e+00
Cu 9.771102163837329657e-01 4.333147975712025035e-01 0.000000000000000000e+00
Cu 9.773564010725722673e-01 5.219848944830821624e-01 0.000000000000000000e+00
Cu 9.765928652814348521e-01 6.110766189813116034e-01 0.000000000000000000e+00
Cu 9.794460055929705700e-01 7.020016428828760313e-01 0.000000000000000000e+00
Cu 9.462690036001130123e-01 7.843879730008584961e-01 0.000000000000000000e+00
Cu 9.179600596389535516e-01 8.842967771453217329e-01 0.000000000000000000e+00
Cu 1.117641013465047628e+00 8.101303073866186755e-02 0.000000000000000000e+00
Cu 1.117501124186854211e+00 1.689328292751805238e-01 0.000000000000000000e+00
Cu 1.117405942705532507e+00 2.569289342260658304e-01 0.000000000000000000e+00
Cu 1.117369554345144955e+00 3.450349856478732713e-01 0.000000000000000000e+00
Cu 1.117508537710959926e+00 4.332991503035200087e-01 0.000000000000000000e+00
Cu 1.117541965598381370e+00 5.218239862910841742e-01 0.000000000000000000e+00
Cu 1.118799006664932039e+00 6.107662658336134864e-01 0.000000000000000000e+00
Cu 1.116594768610759125e+00 7.015826661946336085e-01 0.000000000000000000e+00
Cu 1.150458206522491755e+00 7.835314010819894870e-01 0.000000000000000000e+00
Cu 1.179605430636277763e+00 8.830507012688449953e-01 0.000000000000000000e+00
Cu 1.257719588603574801e+00 8.123940353465394781e-02 0.000000000000000000e+00
Cu 1.257698089871847946e+00 1.690355182633895559e-01 0.000000000000000000e+00
Cu 1.257706664431551324e+00 2.568707314015009624e-01 0.000000000000000000e+00
Cu 1.257813968687405248e+00 3.447412775684711717e-01 0.000000000000000000e+00
Cu 1.258008070889065966e+00 4.326457797956755336e-01 0.000000000000000000e+00
Cu 1.258692156224784808e+00 5.204599720249217798e-01 0.000000000000000000e+00
Cu 1.259307747231338093e+00 6.079154551760614922e-01 0.000000000000000000e+00
Cu 1.266226353224126244e+00 6.912654134860257704e-01 0.000000000000000000e+00
Cu 1.278096571416776017e+00 7.765060874200289120e-01 0.000000000000000000e+00
Cu 1.290138927831706805e+00 8.715207907140283261e-01 0.000000000000000000e+00
Cu 1.398044841946799899e+00 8.130333444825764422e-02 0.000000000000000000e+00
Cu 1.398129815314617774e+00 1.689583124989904872e-01 0.000000000000000000e+00
Cu 1.398274655922330245e+00 2.565943228999066905e-01 0.000000000000000000e+00
Cu 1.398519296635689635e+00 3.441670138805897339e-01 0.000000000000000000e+00
Cu 1.399012814727904175e+00 4.315978104436480889e-01 0.000000000000000000e+00
Cu 1.399794375480701403e+00 5.187574299340315109e-01 0.000000000000000000e+00
Cu 1.402184978189986886e+00 6.048535392224302365e-01 0.000000000000000000e+00
Cu 1.406777311730177837e+00 6.904772667519049056e-01 0.000000000000000000e+00
Cu 1.411757269467845299e+00 7.783064857206415388e-01 0.000000000000000000e+00
Cu 1.414914389801271044e+00 8.695070832838592834e-01 0.000000000000000000e+00
Cu 1.538621646501318940e+00 8.126441431550381067e-02 0.000000000000000000e+00
Cu 1.538815140165236350e+00 1.687808453085128668e-01 0.000000000000000000e+00
Cu 1.539114431847512288e+00 2.562161265824037804e-01 0.000000000000000000e+00
Cu 1.539569670498710074e+00 3.434898320162893537e-01 0.000000000000000000e+00
Cu 1.540231219811401875e+00 4.305463255662170807e-01 0.000000000000000000e+00
Cu 1.541402479813424486e+00 5.172616856115977990e-01 0.000000000000000000e+00
Cu 1.543311599370032594e+00 6.037932047463779872e-01 0.000000000000000000e+00
Cu 1.545626111524582846e+00 6.908127317284171731e-01 0.000000000000000000e+00
Cu 1.547724040769455689e+00 7.788399163255358415e-01 0.000000000000000000e+00
Cu 1.549122231210153355e+00 8.677233494380378609e-01 0.000000000000000000e+00
Cu 1.679419036949353350e+00 8.117323132966854093e-02 0.000000000000000000e+00
Cu 1.679732716726684005e+00 1.685788387269464284e-01 0.000000000000000000e+00
Cu 1.680230892457625913e+00 2.558436700564048483e-01 0.000000000000000000e+00
Cu 1.680889860071008046e+00 3.428839390177079172e-01 0.000000000000000000e+00
Cu 1.681738382200048898e+00 4.296781526740896529e-01 0.000000000000000000e+00
Cu 1.682800918817688007e+00 5.163387317257500664e-01 0.000000000000000000e+00
Cu 1.684008155029266485e+00 6.031355042532112742e-01 0.000000000000000000e+00
Cu 1.685230528189242127e+00 6.903333619024837331e-01 0.000000000000000000e+00
Cu 1.686350956969453474e+00 7.780313365623173771e-01 0.000000000000000000e+00
Cu 1.687257099927705006e+00 8.661069063999216056e-01 0.000000000000000000e+00
Cu 1.820360730754618350e+00 8.104684863148124696e-02 0.000000000000000000e+00
Cu 1.820839437070747024e+00 1.683912710522815492e-01 0.000000000000000000e+00
Cu 1.821591291383665823e+00 2.555407396806697595e-01 0.000000000000000000e+00
Cu 1.822497548190176397e+00 3.424151462389179446e-01 0.000000000000000000e+00
Cu 1.823442888001455930e+00 4.290643253115674627e-01 0.000000000000000000e+00
Cu 1.824321946589151588e+00 5.156588465812267374e-01 0.000000000000000000e+00
Cu 1.825072063687786628e+00 6.024197951745304813e-01 0.000000000000000000e+00
Cu 1.825698881729834744e+00 6.895238481378350714e-01 0.000000000000000000e+00
Cu 1.826255588422445841e+00 7.770326014309681950e-01 0.000000000000000000e+00
Cu 1.826805896791437345e+00 8.648474320738439580e-01 0.000000000000000000e+00
Cu 1.961326636633295761e+00 8.083759598582664074e-02 0.000000000000000000e+00
Cu 1.962066818886628150e+00 1.681899326287916163e-01 0.000000000000000000e+00
Cu 1.963185867454738665e+00 2.552811290739351868e-01 0.000000000000000000e+00
Cu 1.964411584820443091e+00 3.420518857181080730e-01 0.000000000000000000e+00
Cu 1.965486907006712469e+00 4.285983292101532283e-01 0.000000000000000000e+00
Cu 1.966228864691688782e+00 5.151016538360932984e-01 0.000000000000000000e+00
Cu 1.966591272881980546e+00 6.017624626898684381e-01 0.000000000000000000e+00
Cu 1.966674543391327967e+00 6.887519694788428737e-01 0.000000000000000000e+00
Cu 1.966675356908101024e+00 7.761506142529888130e-01 0.000000000000000000e+00
Cu 1.966824623889056101e+00 8.638731574946704184e-01 0.000000000000000000e+00
Cu 2.102140949542139481e+00 8.040054009178695948e-02 0.000000000000000000e+00
Cu 2.103336156936803647e+00 1.678465961803052298e-01 0.000000000000000000e+00
Cu 2.105025558006308195e+00 2.549252952668880079e-01 0.000000000000000000e+00
Cu 2.106715907487318074e+00 3.416380529839699864e-01 0.000000000000000000e+00
Cu 2.108000342181267417e+00 4.281679163801197507e-01 0.000000000000000000e+00
Cu 2.108642370389524956e+00 5.146860705869147345e-01 0.000000000000000000e+00
Cu 2.108603950787153014e+00 6.013121688808740206e-01 0.000000000000000000e+00
Cu 2.108052215578118727e+00 6.882068148278708275e-01 0.000000000000000000e+00
Cu 2.107340737333839531e+00 7.755343590642745921e-01 0.000000000000000000e+00
Cu 2.106925715398066945e+00 8.632710925464845975e-01 0.000000000000000000e+00
Cu 2.242534089051551494e+00 7.944315135322671528e-02 0.000000000000000000e+00
Cu 2.244567513082013743e+00 1.670912039234728197e-01 0.000000000000000000e+00
Cu 2.247186026951001558e+00 2.541679376209255437e-01 0.000000000000000000e+00
Cu 2.249515405343258667e+00 3.408947404421124316e-01 0.000000000000000000e+00
Cu 2.251022587033363997e+00 4.276404817011000281e-01 0.000000000000000000e+00
Cu 2.251594579389571749e+00 5.144842959290192308e-01 0.000000000000000000e+00
Cu 2.251197341601018476e+00 6.013055276686392059e-01 0.000000000000000000e+00
Cu 2.249880352455559507e+00 6.881742141054525419e-01 0.000000000000000000e+00
Cu 2.248129079757220428e+00 7.754425986309949614e-01 0.000000000000000000e+00
Cu 2.246786025500497885e+00 8.633118479411977519e-01 0.000000000000000000e+00
Cu 2.382005564984317036e+00 7.739465107636331331e-02 0.000000000000000000e+00
Cu 2.385738191473167458e+00 1.653925811670848012e-01 0.000000000000000000e+00
Cu 2.389889158256515156e+00 2.524220196673582772e-01 0.000000000000000000e+00
Cu 2.392868669190805431e+00 3.394474508912108113e-01 0.000000000000000000e+00
Cu 2.394434511883438699e+00 4.269216780546695178e-01 0.000000000000000000e+00
Cu 2.394962620704404799e+00 5.145398515276373708e-01 0.000000000000000000e+00
Cu 2.394419800119901076e+00 6.020749959164083398e-01 0.000000000000000000e+00
Cu 2.392369447755202216e+00 6.892146669665336622e-01 0.000000000000000000e+00
Cu 2.389002821467512305e+00 7.763923455542219854e-01 0.000000000000000000e+00
Cu 2.385885378717565786e+00 8.645541311094500081e-01 0.000000000000000000e+00
Cu 2.519320861637062148e+00 7.289012827990855314e-02 0.000000000000000000e+00
Cu 2.527213707052843983e+00 1.614290548526919888e-01 0.000000000000000000e+00
Cu 2.533526117341653006e+00 2.487512560767696501e-01 0.000000000000000000e+00
Cu 2.536427728724684361e+00 3.372663992554275070e-01 0.000000000000000000e+00
Cu 2.538067308470693728e+00 4.260008324711111460e-01 0.000000000000000000e+00
Cu 2.538571324261785112e+00 5.148118909571866020e-01 0.000000000000000000e+00
Cu 2.537910141954553556e+00 6.036097126434131210e-01 0.000000000000000000e+00
Cu 2.535895058673156566e+00 6.922340874519700149e-01 0.000000000000000000e+00
Cu 2.530322457044659412e+00 7.796976588316560930e-01 0.000000000000000000e+00
Cu 2.522983168846534952e+00 8.683637820400215146e-01 0.000000000000000000e+00
Cu 2.649702364654838327e+00 5.899044292403853029e-02 0.000000000000000000e+00
Cu 2.671210053986632360e+00 1.519420631115960818e-01 0.000000000000000000e+00
Cu 2.676714328804262966e+00 2.440483218641092966e-01 0.000000000000000000e+00
Cu 2.680156859832154570e+00 3.348473330453092811e-01 0.000000000000000000e+00
Cu 2.681777705664869504e+00 4.250319963433671355e-01 0.000000000000000000e+00
Cu 2.682270556498543179e+00 5.150911489842835422e-01 0.000000000000000000e+00
Cu 2.681608090533313060e+00 6.053593112189210590e-01 0.000000000000000000e+00
Cu 2.679046611420209612e+00 6.963106049206759796e-01 0.000000000000000000e+00
Cu 2.674286999483712624e+00 7.885906874888267692e-01 0.000000000000000000e+00
Cu 2.653337542376148495e+00 8.817369929926717198e-01 0.000000000000000000e+00
