200

Cu 0.000000000000000000e+00 1.589604769882019466e-06 0.000000000000000000e+00
Cu 0.000000000000000000e+00 1.052641758873621991e-01 0.000000000000000000e+00
Cu 0.000000000000000000e+00 2.105269077994658400e-01 0.000000000000000000e+00
Cu 0.000000000000000000e+00 3.157897237738150342e-01 0.000000000000000000e+00
Cu 0.000000000000000000e+00 4.210525876428623526e-01 0.000000000000000000e+00
Cu 0.000000000000000000e+00 5.263154799521974070e-01 0.000000000000000000e+00
Cu 0.000000000000000000e+00 6.315783881382592835e-01 0.000000000000000000e+00
Cu 0.000000000000000000e+00 7.368412874266452306e-01 0.000000000000000000e+00
Cu 0.000000000000000000e+00 8.421041285274777355e-01 0.000000000000000000e+00
Cu 0.000000000000000000e+00 9.473668266986031705e-01 0.000000000000000000e+00
Cu 1.052666950342098229e-01 2.713739630211134748e-06 0.000000000000000000e+00
Cu 1.052661916723862945e-01 1.052646711900005888e-01 0.000000000000000000e+00
Cu 1.052660810181507700e-01 2.105271642988744696e-01 0.000000000000000000e+00
Cu 1.052660368032035249e-01 3.157898318581766062e-01 0.000000000000000000e+00
Cu 1.052659927190922190e-01 4.210525690468902571e-01 0.000000000000000000e+00
Cu 1.052659318525326210e-01 5.263153464076214538e-01 0.000000000000000000e+00
Cu 1.052658609296456549e-01 6.315781445652668413e-01 0.000000000000000000e+00
Cu 1.052658116659349469e-01 7.368409255863956897e-01 0.000000000000000000e+00
Cu 1.052658612563285578e-01 8.421035762956680104e-01 0.000000000000000000e+00
Cu 1.052663251797555932e-01 9.473657345956878473e-01 0.000000000000000000e+00
Cu 2.105341950830706688e-01 4.154031931872413712e-06 0.000000000000000000e+00
Cu 2.105333330077810983e-01 1.052656574093126518e-01 0.000000000000000000e+00
Cu 2.105329955887645377e-01 2.105277332086951669e-01 0.000000000000000000e+00
Cu 2.105328676202470051e-01 3.157900969181248740e-01 0.000000000000000000e+00
Cu 2.105327500993761924e-01 4.210525743819848454e-01 0.000000000000000000e+00
Cu 2.105325994066681305e-01 5.263151130452984328e-01 0.000000000000000000e+00
Cu 2.105324415135358673e-01 6.315776790611193903e-01 0.000000000000000000e+00
Cu 2.105323482307209781e-01 7.368401921426777079e-01 0.000000000000000000e+00
Cu 2.105325158333242186e-01 8.421024869723308104e-01 0.000000000000000000e+00
Cu 2.105332650235075542e-01 9.473643005780771897e-01 0.000000000000000000e+00
Cu 3.158036220141583472e-01 6.604282337941156316e-06 0.000000000000000000e+00
Cu 3.158021702218190563e-01 1.052672207881503313e-01 0.000000000000000000e+00
Cu 3.158015662400707746e-01 2.105287059163493679e-01 0.000000000000000000e+00
Cu 3.158013188502538093e-01 3.157906144223789902e-01 0.000000000000000000e+00
Cu 3.158010992297757280e-01 4.210526667246179411e-01 0.000000000000000000e+00
Cu 3.158007970018482102e-01 5.263147783116569611e-01 0.000000000000000000e+00
Cu 3.158005051849271383e-01 6.315769333022001053e-01 0.000000000000000000e+00
Cu 3.158003656123555825e-01 7.368390163083345934e-01 0.000000000000000000e+00
Cu 3.158005923615952448e-01 8.421007941175276956e-01 0.000000000000000000e+00
Cu 3.158016979590269613e-01 9.473619265619916963e-01 0.000000000000000000e+00
Cu 4.210762962123999475e-01 1.053611029087573685e-05 0.000000000000000000e+00
Cu 4.210738833598168251e-01 1.052697075700262663e-01 0.000000000000000000e+00
Cu 4.210728007766191272e-01 2.105302353361203915e-01 0.000000000000000000e+00
Cu 4.210723599055179456e-01 3.157914939326324499e-01 0.000000000000000000e+00
Cu 4.210720934586816289e-01 4.210530145182879713e-01 0.000000000000000000e+00
Cu 4.210716014558664178e-01 5.263144137232664832e-01 0.000000000000000000e+00
Cu 4.210710115589996749e-01 6.315758290518871387e-01 0.000000000000000000e+00
Cu 4.210707707739447803e-01 7.368372634794676523e-01 0.000000000000000000e+00
Cu 4.210711018224032043e-01 8.420983211347770059e-01 0.000000000000000000e+00
Cu 4.210725739746848939e-01 9.473583693941294293e-01 0.000000000000000000e+00
Cu 5.263539617307306795e-01 1.661978277239380369e-05 0.000000000000000000e+00
Cu 5.263500213533580663e-01 1.052735732887623427e-01 0.000000000000000000e+00
Cu 5.263480703582481546e-01 2.105325995793842220e-01 0.000000000000000000e+00
Cu 5.263472097136993044e-01 3.157928527646311490e-01 0.000000000000000000e+00
Cu 5.263468722573401148e-01 4.210536906890188780e-01 0.000000000000000000e+00
Cu 5.263466088504787921e-01 5.263144632613919738e-01 0.000000000000000000e+00
Cu 5.263454748947901107e-01 6.315742907514706461e-01 0.000000000000000000e+00
Cu 5.263445866359369729e-01 7.368345865937592221e-01 0.000000000000000000e+00
Cu 5.263451542204576894e-01 8.420949534314045026e-01 0.000000000000000000e+00
Cu 5.263471556341625668e-01 9.473538208831130403e-01 0.000000000000000000e+00
Cu 6.316389791987718771e-01 2.584378615157081302e-05 0.000000000000000000e+00
Cu 6.316326610628559823e-01 1.052795229000147853e-01 0.000000000000000000e+00
Cu 6.316292340890290458e-01 2.105362643282132629e-01 0.000000000000000000e+00
Cu 6.316275313177803774e-01 3.157949047373261875e-01 0.000000000000000000e+00
Cu 6.316268984905855088e-01 4.210546145424694520e-01 0.000000000000000000e+00
Cu 6.316269243535901357e-01 5.263146815045820492e-01 0.000000000000000000e+00
Cu 6.316272483842784169e-01 6.315740841874996070e-01 0.000000000000000000e+00
Cu 6.316236267617634237e-01 7.368296151590392196e-01 0.000000000000000000e+00
Cu 6.316222705829598327e-01 8.420905245177705556e-01 0.000000000000000000e+00
Cu 6.316282320236382697e-01 9.473484683811931317e-01 0.000000000000000000e+00
Cu 7.369344950620464463e-01 3.966057635921171643e-05 0.000000000000000000e+00
Cu 7.369245732352245337e-01 1.052886545842218191e-01 0.000000000000000000e+00
Cu 7.369188058255814466e-01 2.105420149856003786e-01 0.000000000000000000e+00
Cu 7.369156706800474854e-01 3.157981008144125079e-01 0.000000000000000000e+00
Cu 7.369143234959988353e-01 4.210557724652935763e-01 0.000000000000000000e+00
Cu 7.369144325461739475e-01 5.263142446970606736e-01 0.000000000000000000e+00
Cu 7.369156616363806700e-01 6.315729712117346129e-01 0.000000000000000000e+00
Cu 7.369189383845395902e-01 7.368314554587074294e-01 0.000000000000000000e+00
Cu 7.368957162636348146e-01 8.420784532267148181e-01 0.000000000000000000e+00
Cu 7.369229541751647350e-01 9.473383881678790752e-01 0.000000000000000000e+00
Cu 8.422445798994565580e-01 6.014643049473692089e-05 0.000000000000000000e+00
Cu 8.422293838412038269e-01 1.053026284770454540e-01 0.000000000000000000e+00
Cu 8.422201504304179798e-01 2.105511003498594103e-01 0.000000000000000000e+00
Cu 8.422148672421816418e-01 3.158032266072828276e-01 0.000000000000000000e+00
Cu 8.422124286119297976e-01 4.210573938485473455e-01 0.000000000000000000e+00
Cu 8.422123296138749327e-01 5.263124610898224365e-01 0.000000000000000000e+00
Cu 8.422149426630760605e-01 6.315675034293842804e-01 0.000000000000000000e+00
Cu 8.422204026621544770e-01 7.368210449480729896e-01 0.000000000000000000e+00
Cu 8.422616825304779509e-01 8.420590572966559773e-01 0.000000000000000000e+00
Cu 8.422494508332947216e-01 9.473088378591181247e-01 0.000000000000000000e+00
Cu 9.475742947850431808e-01 9.014538781686580481e-05 0.000000000000000000e+00
Cu 9.475517231514600791e-01 1.053238358029779942e-01 0.000000000000000000e+00
Cu 9.475377205601364095e-01 2.105653830247776748e-01 0.000000000000000000e+00
Cu 9.475295621560320125e-01 3.158114797308147481e-01 0.000000000000000000e+00
Cu 9.475257609963814165e-01 4.210598917766692484e-01 0.000000000000000000e+00
Cu 9.475258472949372734e-01 5.263089285759459113e-01 0.000000000000000000e+00
Cu 9.475303241334190885e-01 6.315566229449263158e-01 0.000000000000000000e+00
Cu 9.475448140171205402e-01 7.367986240196980896e-01 0.000000000000000000e+00
Cu 9.475631435970296446e-01 8.420447600279866718e-01 0.000000000000000000e+00
Cu 9.475822328413405771e-01 9.472830222609411877e-01 0.000000000000000000e+00
Cu 1.052929634793858371e+00 1.333191368185924683e-04 0.000000000000000000e+00
Cu 1.052897333671491076e+00 1.053554974653718862e-01 0.000000000000000000e+00
Cu 1.052877337404177327e+00 2.105874543073690819e-01 0.000000000000000000e+00
Cu 1.052865785256648534e+00 3.158245694951168359e-01 0.000000000000000000e+00
Cu 1.052860575828889811e+00 4.210639257422439385e-01 0.000000000000000000e+00
Cu 1.052861037423107771e+00 5.263035684811345760e-01 0.000000000000000000e+00
Cu 1.052868178431544566e+00 6.315417219551114902e-01 0.000000000000000000e+00
Cu 1.052881569989249977e+00 7.367790537114055072e-01 0.000000000000000000e+00
Cu 1.052902154825284375e+00 8.420129250763420670e-01 0.000000000000000000e+00
Cu 1.052935281291207836e+00 9.472370609607605463e-01 0.000000000000000000e+00
Cu 1.158317310314497250e+00 1.939847736705154477e-04 0.000000000000000000e+00
Cu 1.158273100845299997e+00 1.054015640615037358e-01 0.000000000000000000e+00
Cu 1.158246467457020978e+00 2.106205930382955005e-01 0.000000000000000000e+00
Cu 1.158231663222547558e+00 3.158447438249771255e-01 0.000000000000000000e+00
Cu 1.158225288502068073e+00 4.210705008149492334e-01 0.000000000000000000e+00
Cu 1.158225941241384893e+00 5.262963546519290325e-01 0.000000000000000000e+00
Cu 1.158233353544457334e+00 6.315221365734087211e-01 0.000000000000000000e+00
Cu 1.158248691463600100e+00 7.367467663503326492e-01 0.000000000000000000e+00
Cu 1.158275704026851205e+00 8.419665839363212889e-01 0.000000000000000000e+00
Cu 1.158320550432739848e+00 9.471750050190176351e-01 0.000000000000000000e+00
Cu 1.263744373993217485e+00 2.766123090162618797e-04 0.000000000000000000e+00
Cu 1.263686989805502314e+00 1.054662501234397282e-01 0.000000000000000000e+00
Cu 1.263654469385274925e+00 2.106683495183838406e-01 0.000000000000000000e+00
Cu 1.263637979032090408e+00 3.158744735691650929e-01 0.000000000000000000e+00
Cu 1.263631519641687628e+00 4.210806486633017487e-01 0.000000000000000000e+00
Cu 1.263631873697919961e+00 5.262864727009241017e-01 0.000000000000000000e+00
Cu 1.263638876540295053e+00 6.314928935826268352e-01 0.000000000000000000e+00
Cu 1.263655666251143783e+00 7.366993736572839957e-01 0.000000000000000000e+00
Cu 1.263688442891907959e+00 8.419018611662829610e-01 0.000000000000000000e+00
Cu 1.263746111114534942e+00 9.470919793217772442e-01 0.000000000000000000e+00
Cu 1.369217755599744679e+00 3.848975234248021293e-04 0.000000000000000000e+00
Cu 1.369147961928238288e+00 1.055530486315770233e-01 0.000000000000000000e+00
Cu 1.369112836662530919e+00 2.107334529480914265e-01 0.000000000000000000e+00
Cu 1.369098769190790987e+00 3.159154365276652943e-01 0.000000000000000000e+00
Cu 1.369095002386328641e+00 4.210948354244833380e-01 0.000000000000000000e+00
Cu 1.369095153781860086e+00 5.262727425070027332e-01 0.000000000000000000e+00
Cu 1.369099186994410911e+00 6.314522948940543001e-01 0.000000000000000000e+00
Cu 1.369113453563453264e+00 7.366344985384301047e-01 0.000000000000000000e+00
Cu 1.369148731717798384e+00 8.418151428611255760e-01 0.000000000000000000e+00
Cu 1.369218644487021352e+00 9.469835719857249146e-01 0.000000000000000000e+00
Cu 1.474743744951844571e+00 5.203463262312855650e-04 0.000000000000000000e+00
Cu 1.474666123717134791e+00 1.056631113052346888e-01 0.000000000000000000e+00
Cu 1.474635710882644890e+00 2.108157277696880438e-01 0.000000000000000000e+00
Cu 1.474631660246955800e+00 3.159664438474967252e-01 0.000000000000000000e+00
Cu 1.474635523429562056e+00 4.211122159146524213e-01 0.000000000000000000e+00
Cu 1.474635584739777627e+00 5.262557235262981248e-01 0.000000000000000000e+00
Cu 1.474631842151908012e+00 6.314015671288401021e-01 0.000000000000000000e+00
Cu 1.474636002176417104e+00 7.365524019981773973e-01 0.000000000000000000e+00
Cu 1.474666500712478179e+00 8.417051611217135632e-01 0.000000000000000000e+00
Cu 1.474744178256517158e+00 9.468480830611996080e-01 0.000000000000000000e+00
Cu 1.580327261697153540e+00 6.800335629452668174e-04 0.000000000000000000e+00
Cu 1.580253623909845917e+00 1.057926927522862687e-01 0.000000000000000000e+00
Cu 1.580241375326553621e+00 2.109086952460533515e-01 0.000000000000000000e+00
Cu 1.580257781698989561e+00 3.160201437087065135e-01 0.000000000000000000e+00
Cu 1.580274243076555951e+00 4.211293946609482863e-01 0.000000000000000000e+00
Cu 1.580274267533275934e+00 5.262387758259601256e-01 0.000000000000000000e+00
Cu 1.580257856717052656e+00 6.313480576034014025e-01 0.000000000000000000e+00
Cu 1.580241501271432147e+00 7.364595632507697776e-01 0.000000000000000000e+00
Cu 1.580253793512880867e+00 8.415756405285906849e-01 0.000000000000000000e+00
Cu 1.580327460047304289e+00 9.466883819405668143e-01 0.000000000000000000e+00
Cu 1.685970371234659870e+00 8.523077300559899015e-04 0.000000000000000000e+00
Cu 1.685927400566400891e+00 1.059281775054690539e-01 0.000000000000000000e+00
Cu 1.685955506350142796e+00 2.109942827953973643e-01 0.000000000000000000e+00
Cu 1.686000471748336560e+00 3.160601559499474078e-01 0.000000000000000000e+00
Cu 1.686027578774184077e+00 4.211400010555412243e-01 0.000000000000000000e+00
Cu 1.686027588185722514e+00 5.262283005997757668e-01 0.000000000000000000e+00
Cu 1.686000500958877435e+00 6.313081583993341850e-01 0.000000000000000000e+00
Cu 1.685955556768100605e+00 7.363740565003117355e-01 0.000000000000000000e+00
Cu 1.685927471044931680e+00 8.414401964491927677e-01 0.000000000000000000e+00
Cu 1.685970455479011809e+00 9.465161055149823310e-01 0.000000000000000000e+00
Cu 1.791668709289505168e+00 1.005056070438412530e-03 0.000000000000000000e+00
Cu 1.791716822373832896e+00 1.060344140417266295e-01 0.000000000000000000e+00
Cu 1.791813815530289178e+00 2.110352219479065539e-01 0.000000000000000000e+00
Cu 1.791877125651817115e+00 3.160664742689153206e-01 0.000000000000000000e+00
Cu 1.791900966432655284e+00 4.211399967068839567e-01 0.000000000000000000e+00
Cu 1.791900969926804255e+00 5.262283721872718090e-01 0.000000000000000000e+00
Cu 1.791877136550622973e+00 6.313018995333675720e-01 0.000000000000000000e+00
Cu 1.791813834677367101e+00 7.363331617951816011e-01 0.000000000000000000e+00
Cu 1.791716849871992867e+00 8.413339842041857031e-01 0.000000000000000000e+00
Cu 1.791668742552596560e+00 9.463633592857695342e-01 0.000000000000000000e+00
Cu 1.897406315921747799e+00 1.051431367531659427e-03 0.000000000000000000e+00
Cu 1.897681916993453788e+00 1.060195040845290926e-01 0.000000000000000000e+00
Cu 1.897838997917703940e+00 2.109863972929952314e-01 0.000000000000000000e+00
Cu 1.897883408221680224e+00 3.160397808579368806e-01 0.000000000000000000e+00
Cu 1.897894467772286875e+00 4.211323992891607970e-01 0.000000000000000000e+00
Cu 1.897894469132697992e+00 5.262360003519003238e-01 0.000000000000000000e+00
Cu 1.897883412459348662e+00 6.313286206068079442e-01 0.000000000000000000e+00
Cu 1.897839005378669786e+00 7.363820079392726647e-01 0.000000000000000000e+00
Cu 1.897681927746334818e+00 8.413489068103580104e-01 0.000000000000000000e+00
Cu 1.897406328825209210e+00 9.463169862779829966e-01 0.000000000000000000e+00
Cu 2.003157538319175757e+00 6.122305443011998808e-04 0.000000000000000000e+00
Cu 2.003848684835956906e+00 1.057495629878348747e-01 0.000000000000000000e+00
Cu 2.003981472601283897e+00 2.108827399702490057e-01 0.000000000000000000e+00
Cu 2.004013260669800456e+00 3.160056256840119149e-01 0.000000000000000000e+00
Cu 2.004017119958720894e+00 4.211247178679352055e-01 0.000000000000000000e+00
Cu 2.004017120643871053e+00 5.262436928911543577e-01 0.000000000000000000e+00
Cu 2.004013262784051896e+00 6.313627858820739513e-01 0.000000000000000000e+00
Cu 2.003981476278168916e+00 7.364856732889455415e-01 0.000000000000000000e+00
Cu 2.003848690115634934e+00 8.416188528345120989e-01 0.000000000000000000e+00
Cu 2.003157544673237478e+00 9.467561880639413507e-01 0.000000000000000000e+00
