200

Cu 0.000000000000000000e+00 3.080585212118549555e-03 0.000000000000000000e+00
Cu 0.000000000000000000e+00 1.073616496176519608e-01 0.000000000000000000e+00
Cu 0.000000000000000000e+00 2.117573113992876621e-01 0.000000000000000000e+00
Cu 0.000000000000000000e+00 3.163643507335260341e-01 0.000000000000000000e+00
Cu 0.000000000000000000e+00 4.212151684217239067e-01 0.000000000000000000e+00
Cu 0.000000000000000000e+00 5.263081389823009992e-01 0.000000000000000000e+00
Cu 0.000000000000000000e+00 6.316348648218144124e-01 0.000000000000000000e+00
Cu 0.000000000000000000e+00 7.371886626100141449e-01 0.000000000000000000e+00
Cu 0.000000000000000000e+00 8.429545004077236836e-01 0.000000000000000000e+00
Cu 0.000000000000000000e+00 9.488855047349693539e-01 0.000000000000000000e+00
Cu 1.087194971303725721e-01 4.105679069346866022e-03 0.000000000000000000e+00
Cu 1.078472601485957888e-01 1.078781293361042726e-01 0.000000000000000000e+00
Cu 1.072038824023593268e-01 2.121483821185398688e-01 0.000000000000000000e+00
Cu 1.065845239290413998e-01 3.167368652112000360e-01 0.000000000000000000e+00
Cu 1.059771669056734783e-01 4.215986360461214111e-01 0.000000000000000000e+00
Cu 1.053756488776127764e-01 5.267125511995334186e-01 0.000000000000000000e+00
Cu 1.047704023785521743e-01 6.320622122930845688e-01 0.000000000000000000e+00
Cu 1.041447835063091937e-01 7.376451198534287323e-01 0.000000000000000000e+00
Cu 1.034685349742654192e-01 8.435039583639198923e-01 0.000000000000000000e+00
Cu 1.025429990665729652e-01 9.498349757858198794e-01 0.000000000000000000e+00
Cu 2.173134218220872937e-01 5.417831713759512988e-03 0.000000000000000000e+00
Cu 2.158126866587775361e-01 1.092119682484496007e-01 0.000000000000000000e+00
Cu 2.144228496645646520e-01 2.133843538853445188e-01 0.000000000000000000e+00
Cu 2.131394164735710139e-01 3.179482067852097971e-01 0.000000000000000000e+00
Cu 2.119061792011199818e-01 4.228330411432518199e-01 0.000000000000000000e+00
Cu 2.107017412104811582e-01 5.279927200936554987e-01 0.000000000000000000e+00
Cu 2.094992356337384010e-01 6.333973795872382961e-01 0.000000000000000000e+00
Cu 2.082502290846650894e-01 7.390437242531231465e-01 0.000000000000000000e+00
Cu 2.068565842128398946e-01 8.449815375265931072e-01 0.000000000000000000e+00
Cu 2.052546315434095325e-01 9.512354081796062788e-01 0.000000000000000000e+00
Cu 3.257882365285130755e-01 7.351568642132238172e-03 0.000000000000000000e+00
Cu 3.236526057502078779e-01 1.111856878281147903e-01 0.000000000000000000e+00
Cu 3.215862382453881785e-01 2.153863033776199087e-01 0.000000000000000000e+00
Cu 3.196178680726350363e-01 3.199601093416126751e-01 0.000000000000000000e+00
Cu 3.177437129618644329e-01 4.248819561535551736e-01 0.000000000000000000e+00
Cu 3.159389438237329428e-01 5.301013622503172318e-01 0.000000000000000000e+00
Cu 3.141647048599369163e-01 6.355746360750171853e-01 0.000000000000000000e+00
Cu 3.123467047135796149e-01 7.412741458979996700e-01 0.000000000000000000e+00
Cu 3.103909529936639267e-01 8.471846800358732166e-01 0.000000000000000000e+00
Cu 3.082078811854030986e-01 9.533266948195083801e-01 0.000000000000000000e+00
Cu 4.341245712062541395e-01 9.935507456459479261e-03 0.000000000000000000e+00
Cu 4.313306248389655595e-01 1.138209091229209907e-01 0.000000000000000000e+00
Cu 4.285928694289549701e-01 2.180794618420878739e-01 0.000000000000000000e+00
Cu 4.259573602322766495e-01 3.227099057592042186e-01 0.000000000000000000e+00
Cu 4.234473259695040737e-01 4.276838043869636841e-01 0.000000000000000000e+00
Cu 4.210611832049182546e-01 5.329564731283943368e-01 0.000000000000000000e+00
Cu 4.187682839235806753e-01 6.384753690667795967e-01 0.000000000000000000e+00
Cu 4.164974667818547305e-01 7.441845235136456127e-01 0.000000000000000000e+00
Cu 4.141278352744731661e-01 8.500338289189602881e-01 0.000000000000000000e+00
Cu 4.115069718148775535e-01 9.560176534399759118e-01 0.000000000000000000e+00
Cu 5.423082905763507711e-01 1.318488980714815559e-02 0.000000000000000000e+00
Cu 5.388231472198015126e-01 1.171162052827665057e-01 0.000000000000000000e+00
Cu 5.353933031746290760e-01 2.214374400064955395e-01 0.000000000000000000e+00
Cu 5.320979213025754939e-01 3.261372283117928150e-01 0.000000000000000000e+00
Cu 5.289838613876731710e-01 4.311657873229628457e-01 0.000000000000000000e+00
Cu 5.260658517411062052e-01 5.364557528317441815e-01 0.000000000000000000e+00
Cu 5.233341139592309066e-01 6.419521995757175858e-01 0.000000000000000000e+00
Cu 5.207307867655434075e-01 7.476033661211166637e-01 0.000000000000000000e+00
Cu 5.181174652420411642e-01 8.533546290277802537e-01 0.000000000000000000e+00
Cu 5.152688730533505623e-01 9.591429551346161153e-01 0.000000000000000000e+00
Cu 6.503441749174998510e-01 1.712964457673948893e-02 0.000000000000000000e+00
Cu 6.461177633578569779e-01 1.210849871434419300e-01 0.000000000000000000e+00
Cu 6.419546250112024843e-01 2.254431344189022635e-01 0.000000000000000000e+00
Cu 6.379973319805043452e-01 3.301952732426073900e-01 0.000000000000000000e+00
Cu 6.343303928907340072e-01 4.352536784145701887e-01 0.000000000000000000e+00
Cu 6.309841015943959963e-01 5.405033407953180324e-01 0.000000000000000000e+00
Cu 6.279253491554740441e-01 6.458473322463487154e-01 0.000000000000000000e+00
Cu 6.250978828270409293e-01 7.513075187559725698e-01 0.000000000000000000e+00
Cu 6.223915725675860378e-01 8.568697167249724744e-01 0.000000000000000000e+00
Cu 6.195974728863021808e-01 9.624461226357267085e-01 0.000000000000000000e+00
Cu 7.582402684829057105e-01 2.183277167210903244e-02 0.000000000000000000e+00
Cu 7.532219925695681217e-01 1.257814579837328028e-01 0.000000000000000000e+00
Cu 7.482686047528519513e-01 2.301098224293882666e-01 0.000000000000000000e+00
Cu 7.436182290430359831e-01 3.348394529559770572e-01 0.000000000000000000e+00
Cu 7.394738121005866027e-01 4.398753884188222329e-01 0.000000000000000000e+00
Cu 7.358678604185624472e-01 5.449762684063133023e-01 0.000000000000000000e+00
Cu 7.327054382620302730e-01 6.500335082408664755e-01 0.000000000000000000e+00
Cu 7.297051538734352638e-01 7.550458089690302854e-01 0.000000000000000000e+00
Cu 7.269972258877634985e-01 8.602659001029340224e-01 0.000000000000000000e+00
Cu 7.245739988812993637e-01 9.653935729165515900e-01 0.000000000000000000e+00
Cu 8.659765531126056848e-01 2.735739362704781366e-02 0.000000000000000000e+00
Cu 8.601408225769269222e-01 1.313082015069016451e-01 0.000000000000000000e+00
Cu 8.543768307566173004e-01 2.355377817029856991e-01 0.000000000000000000e+00
Cu 8.489624021524196928e-01 3.400684009891991599e-01 0.000000000000000000e+00
Cu 8.443708429234915158e-01 4.449035570193313194e-01 0.000000000000000000e+00
Cu 8.408861160948886138e-01 5.497059333143136106e-01 0.000000000000000000e+00
Cu 8.378085552464709096e-01 6.541940426224278626e-01 0.000000000000000000e+00
Cu 8.347122212759722215e-01 7.590252047981943528e-01 0.000000000000000000e+00
Cu 2.449276582427129867e+00 6.973716969995503723e-01 0.000000000000000000e+00
Cu 2.429025607303148426e+00 8.001965686006724532e-01 0.000000000000000000e+00
Cu 9.735102429820665648e-01 3.378414207798886154e-02 0.000000000000000000e+00
Cu 9.667977881630493986e-01 1.377323517140103259e-01 0.000000000000000000e+00
Cu 9.603074371022770617e-01 2.419652544837113117e-01 0.000000000000000000e+00
Cu 9.541755292213299766e-01 3.461132325839333390e-01 0.000000000000000000e+00
Cu 9.490673366466187977e-01 4.502131149756040673e-01 0.000000000000000000e+00
Cu 9.464700560476317914e-01 5.538531314204938605e-01 0.000000000000000000e+00
Cu 9.432639553028246970e-01 6.583374261541670158e-01 0.000000000000000000e+00
Cu 2.578941839385348711e+00 6.169164246724720968e-01 0.000000000000000000e+00
Cu 2.557042256850062145e+00 7.181839267150856854e-01 0.000000000000000000e+00
Cu 2.538925027950906799e+00 8.182604978367241655e-01 0.000000000000000000e+00
Cu 1.080738509544686199e+00 4.115627171406061741e-02 0.000000000000000000e+00
Cu 1.073123475161806617e+00 1.452019994202738140e-01 0.000000000000000000e+00
Cu 1.065745337039680107e+00 2.493660086243771334e-01 0.000000000000000000e+00
Cu 1.059272025737705958e+00 3.538824832592076808e-01 0.000000000000000000e+00
Cu 2.759822622027951144e+00 3.352103803288538630e-01 0.000000000000000000e+00
Cu 2.728567478902559795e+00 4.348713967804315739e-01 0.000000000000000000e+00
Cu 2.711161083443253794e+00 5.374853679285814811e-01 0.000000000000000000e+00
Cu 2.688475646528463603e+00 6.374679562157559154e-01 0.000000000000000000e+00
Cu 2.670002837470871970e+00 7.363919471366504599e-01 0.000000000000000000e+00
Cu 2.654619182809786704e+00 8.343392804644828020e-01 0.000000000000000000e+00
Cu 1.187589729889202195e+00 4.967505003353629017e-02 0.000000000000000000e+00
Cu 1.178832635352019986e+00 1.537129702597849756e-01 0.000000000000000000e+00
Cu 1.170805415549274198e+00 2.582365144876357377e-01 0.000000000000000000e+00
Cu 2.893663313981728269e+00 2.608420891332033364e-01 0.000000000000000000e+00
Cu 2.865672870690327834e+00 3.609060537349891851e-01 0.000000000000000000e+00
Cu 2.845519072916990577e+00 4.596868611178233643e-01 0.000000000000000000e+00
Cu 2.821815588613298065e+00 5.565785283583994936e-01 0.000000000000000000e+00
Cu 2.803826652649336282e+00 6.549649653456874887e-01 0.000000000000000000e+00
Cu 2.788015147858339926e+00 7.517307931117470643e-01 0.000000000000000000e+00
Cu 2.775235979916837792e+00 8.476786954038806332e-01 0.000000000000000000e+00
Cu 1.293802967574858132e+00 5.931111544264709712e-02 0.000000000000000000e+00
Cu 1.283998622528617961e+00 1.637367270833826605e-01 0.000000000000000000e+00
Cu 3.030681875127310576e+00 1.883551260374488057e-01 0.000000000000000000e+00
Cu 3.002460368185532413e+00 2.865855904741331783e-01 0.000000000000000000e+00
Cu 2.979538365560525648e+00 3.832561979211069891e-01 0.000000000000000000e+00
Cu 2.959257897732439080e+00 4.794858867057671947e-01 0.000000000000000000e+00
Cu 2.940543283974920818e+00 5.751199058566486277e-01 0.000000000000000000e+00
Cu 2.924146315876956503e+00 6.696901304004244659e-01 0.000000000000000000e+00
Cu 2.910775447043045361e+00 7.643355585981471689e-01 0.000000000000000000e+00
Cu 2.900078159267885702e+00 8.584236178831406994e-01 0.000000000000000000e+00
Cu 1.399369306130712642e+00 7.087520617178172389e-02 0.000000000000000000e+00
Cu 3.167896823579269938e+00 1.174178547031429071e-01 0.000000000000000000e+00
Cu 3.141020110802740017e+00 2.146737650438577949e-01 0.000000000000000000e+00
Cu 3.118399989986746945e+00 3.097399806178452453e-01 0.000000000000000000e+00
Cu 3.098450970933528836e+00 4.034596680697322135e-01 0.000000000000000000e+00
Cu 3.080427375188767414e+00 4.966995265191554432e-01 0.000000000000000000e+00
Cu 3.064128035686342066e+00 5.895815790489272734e-01 0.000000000000000000e+00
Cu 3.049750166601759904e+00 6.821510391246472516e-01 0.000000000000000000e+00
Cu 3.037754116914715308e+00 7.745803942896399841e-01 0.000000000000000000e+00
Cu 3.028641295786528520e+00 8.669570212615383964e-01 0.000000000000000000e+00
Cu 3.302101160341844199e+00 4.571530242201454763e-02 0.000000000000000000e+00
Cu 3.279407993730690585e+00 1.429585061847340466e-01 0.000000000000000000e+00
Cu 3.258989175669097182e+00 2.370233940255987160e-01 0.000000000000000000e+00
Cu 3.240540544998840922e+00 3.292318723591898810e-01 0.000000000000000000e+00
Cu 3.223489954417595893e+00 4.204295280925511857e-01 0.000000000000000000e+00
Cu 3.207532571043256286e+00 5.111205719274681814e-01 0.000000000000000000e+00
Cu 3.192784051982629823e+00 6.016526125621027843e-01 0.000000000000000000e+00
Cu 3.179615890775673304e+00 6.922160075796058853e-01 0.000000000000000000e+00
Cu 3.168611365035144622e+00 7.829249015291582792e-01 0.000000000000000000e+00
Cu 3.160448914883341676e+00 8.737578777481190828e-01 0.000000000000000000e+00
Cu 3.414356962562361097e+00 6.707664898128803954e-02 0.000000000000000000e+00
Cu 3.398821088978815297e+00 1.624533086730178266e-01 0.000000000000000000e+00
Cu 3.383548532402906428e+00 2.546353126701568215e-01 0.000000000000000000e+00
Cu 3.368726599074052253e+00 3.448857205629905498e-01 0.000000000000000000e+00
Cu 3.354154917209980713e+00 4.341748874464568808e-01 0.000000000000000000e+00
Cu 3.339837301946536385e+00 5.230541160674007095e-01 0.000000000000000000e+00
Cu 3.326082323113531025e+00 6.117974707522394473e-01 0.000000000000000000e+00
Cu 3.313474051412688137e+00 7.006496663964357774e-01 0.000000000000000000e+00
Cu 3.302819434331982773e+00 7.898398499228563852e-01 0.000000000000000000e+00
Cu 3.295066383711231950e+00 8.793926535417485590e-01 0.000000000000000000e+00
Cu 3.535093801496931309e+00 8.410182985664610422e-02 0.000000000000000000e+00
Cu 3.524798862550778011e+00 1.772844130916398642e-01 0.000000000000000000e+00
Cu 3.514104950232328939e+00 2.679229126049503251e-01 0.000000000000000000e+00
Cu 3.502479560602541842e+00 3.568448692160758884e-01 0.000000000000000000e+00
Cu 3.489877321439699198e+00 4.450799134246339883e-01 0.000000000000000000e+00
Cu 3.476761212423000291e+00 5.330447550799087830e-01 0.000000000000000000e+00
Cu 3.463638641377085658e+00 6.207127364759159605e-01 0.000000000000000000e+00
Cu 3.451062427159899304e+00 7.082256897613090629e-01 0.000000000000000000e+00
Cu 3.440034144457777998e+00 7.960698871841219715e-01 0.000000000000000000e+00
Cu 3.431959315489312878e+00 8.845586090072429242e-01 0.000000000000000000e+00
Cu 3.662473121684563626e+00 9.695316772852978493e-02 0.000000000000000000e+00
Cu 3.657088966581454326e+00 1.881762955108030322e-01 0.000000000000000000e+00
Cu 3.650592031838999940e+00 2.772537444639328053e-01 0.000000000000000000e+00
Cu 3.641413119605765747e+00 3.655444896886691497e-01 0.000000000000000000e+00
Cu 3.630028998964516251e+00 4.537790833632805998e-01 0.000000000000000000e+00
Cu 3.617712702487765331e+00 5.417607199170116905e-01 0.000000000000000000e+00
Cu 3.605138433731749803e+00 6.293035404803143384e-01 0.000000000000000000e+00
Cu 3.592320695929709817e+00 7.160332767764009398e-01 0.000000000000000000e+00
Cu 3.580002709295488916e+00 8.026056415518355580e-01 0.000000000000000000e+00
Cu 3.570397334113144527e+00 8.902673072297289103e-01 0.000000000000000000e+00
Cu 3.794408109742377633e+00 1.042190020100095676e-01 0.000000000000000000e+00
Cu 3.795875582449515395e+00 1.940563708307888324e-01 0.000000000000000000e+00
Cu 3.793237165324327531e+00 2.824666194032974254e-01 0.000000000000000000e+00
Cu 3.784751682196936695e+00 3.719264946626487656e-01 0.000000000000000000e+00
Cu 3.774072154602999163e+00 4.611694095135130955e-01 0.000000000000000000e+00
Cu 3.762232131579234640e+00 5.499134471975241079e-01 0.000000000000000000e+00
Cu 3.749908781477155895e+00 6.380820995363574166e-01 0.000000000000000000e+00
Cu 3.737547799542014104e+00 7.256273866108742254e-01 0.000000000000000000e+00
Cu 3.722880903748427617e+00 8.112353155340007449e-01 0.000000000000000000e+00
Cu 3.708796385829826292e+00 8.983122191989637573e-01 0.000000000000000000e+00
Cu 3.925144088484794125e+00 9.709435191773753415e-02 0.000000000000000000e+00
Cu 3.943645858452534458e+00 1.915137851653266610e-01 0.000000000000000000e+00
Cu 3.939837091844558437e+00 2.854331024513608317e-01 0.000000000000000000e+00
Cu 3.932100354215899873e+00 3.776570299096561611e-01 0.000000000000000000e+00
Cu 3.921615763469481042e+00 4.683769896485663886e-01 0.000000000000000000e+00
Cu 3.910004979806338987e+00 5.580589714029051684e-01 0.000000000000000000e+00
Cu 3.897926319125205374e+00 6.471198826662438730e-01 0.000000000000000000e+00
Cu 3.884978453710430379e+00 7.361953100088032276e-01 0.000000000000000000e+00
Cu 3.871517361051122208e+00 8.264365105366403563e-01 0.000000000000000000e+00
Cu 3.840731656673395555e+00 9.162517741084976741e-01 0.000000000000000000e+00
