200

Cu 0.000000000000000000e+00 9.806096237918931287e-05 0.000000000000000000e+00
Cu 0.000000000000000000e+00 1.053352748929947819e-01 0.000000000000000000e+00
Cu 0.000000000000000000e+00 2.105732526117835568e-01 0.000000000000000000e+00
Cu 0.000000000000000000e+00 3.158132031107734883e-01 0.000000000000000000e+00
Cu 0.000000000000000000e+00 4.210550383473506408e-01 0.000000000000000000e+00
Cu 0.000000000000000000e+00 5.262979507672664869e-01 0.000000000000000000e+00
Cu 0.000000000000000000e+00 6.315409646623137974e-01 0.000000000000000000e+00
Cu 0.000000000000000000e+00 7.367831158991309248e-01 0.000000000000000000e+00
Cu 0.000000000000000000e+00 8.420239587839046802e-01 0.000000000000000000e+00
Cu 0.000000000000000000e+00 9.472640957723147404e-01 0.000000000000000000e+00
Cu 1.053658047509887785e-01 1.253938591954015767e-04 0.000000000000000000e+00
Cu 1.053525560008849171e-01 1.053458925497409299e-01 0.000000000000000000e+00
Cu 1.053480103659218958e-01 2.105783257126657426e-01 0.000000000000000000e+00
Cu 1.053450193535868523e-01 3.158155886782930133e-01 0.000000000000000000e+00
Cu 1.053429460960813302e-01 4.210554250560363809e-01 0.000000000000000000e+00
Cu 1.053417417097756853e-01 5.262965764996494489e-01 0.000000000000000000e+00
Cu 1.053414921342188393e-01 6.315377680635722024e-01 0.000000000000000000e+00
Cu 1.053424315382098658e-01 7.367775354315962977e-01 0.000000000000000000e+00
Cu 1.053453387721800111e-01 8.420134043143892022e-01 0.000000000000000000e+00
Cu 1.053570171752396117e-01 9.472383329573990096e-01 0.000000000000000000e+00
Cu 2.107343865140113015e-01 1.476197227185635540e-04 0.000000000000000000e+00
Cu 2.107159416161686338e-01 1.053645787044717869e-01 0.000000000000000000e+00
Cu 2.107040273052425416e-01 2.105898392585079937e-01 0.000000000000000000e+00
Cu 2.106969362529022005e-01 3.158218257470437607e-01 0.000000000000000000e+00
Cu 2.106922291874004372e-01 4.210573413335432780e-01 0.000000000000000000e+00
Cu 2.106895702891776745e-01 5.262945293670083791e-01 0.000000000000000000e+00
Cu 2.106892929462858555e-01 6.315316970186500845e-01 0.000000000000000000e+00
Cu 2.106920828048206851e-01 7.367665129521935308e-01 0.000000000000000000e+00
Cu 2.107002667880125690e-01 8.419956748359898047e-01 0.000000000000000000e+00
Cu 2.107156049326393277e-01 9.472176559698053389e-01 0.000000000000000000e+00
Cu 3.161145126626691559e-01 1.770133236237878775e-04 0.000000000000000000e+00
Cu 3.160899505530954112e-01 1.053873806164169341e-01 0.000000000000000000e+00
Cu 3.160727719383148449e-01 2.106066865042315883e-01 0.000000000000000000e+00
Cu 3.160613425886012462e-01 3.158322517330133250e-01 0.000000000000000000e+00
Cu 3.160536975145686878e-01 4.210613558604284212e-01 0.000000000000000000e+00
Cu 3.160490820176994342e-01 5.262920628866322170e-01 0.000000000000000000e+00
Cu 3.160485975832917349e-01 6.315229246981984845e-01 0.000000000000000000e+00
Cu 3.160534996812940367e-01 7.367514512136964511e-01 0.000000000000000000e+00
Cu 3.160645043927285958e-01 8.419749064316320863e-01 0.000000000000000000e+00
Cu 3.160832000500722883e-01 9.471913168988815857e-01 0.000000000000000000e+00
Cu 4.215136675444549064e-01 2.161513485760270764e-04 0.000000000000000000e+00
Cu 4.214811137269406927e-01 1.054168799870700973e-01 0.000000000000000000e+00
Cu 4.214582314326801860e-01 2.106282396652945643e-01 0.000000000000000000e+00
Cu 4.214430648347007868e-01 3.158467700292325597e-01 0.000000000000000000e+00
Cu 4.214334888427356818e-01 4.210687073279508197e-01 0.000000000000000000e+00
Cu 4.214268192372928046e-01 5.262902033287366610e-01 0.000000000000000000e+00
Cu 4.214244989353395088e-01 6.315117002012754499e-01 0.000000000000000000e+00
Cu 4.214302658893386289e-01 7.367328872720237953e-01 0.000000000000000000e+00
Cu 4.214439717590712231e-01 8.419499964600777320e-01 0.000000000000000000e+00
Cu 4.214657207537310102e-01 9.471586177086197544e-01 0.000000000000000000e+00
Cu 5.269394693666661356e-01 2.675720739382564427e-04 0.000000000000000000e+00
Cu 5.268966089196401859e-01 1.054550234039644541e-01 0.000000000000000000e+00
Cu 5.268663604060055405e-01 2.106554931103489792e-01 0.000000000000000000e+00
Cu 5.268468275153134206e-01 3.158650547482761417e-01 0.000000000000000000e+00
Cu 5.268361292569109233e-01 4.210793840447080161e-01 0.000000000000000000e+00
Cu 5.268314442458873481e-01 5.262929293656213314e-01 0.000000000000000000e+00
Cu 5.268250818361538412e-01 6.314984562746922547e-01 0.000000000000000000e+00
Cu 5.268259077967482051e-01 7.367082381055636287e-01 0.000000000000000000e+00
Cu 5.268429456948278133e-01 8.419207418880700899e-01 0.000000000000000000e+00
Cu 5.268696189688087950e-01 9.471227972199189882e-01 0.000000000000000000e+00
Cu 6.324004371395369750e-01 3.342058915502768720e-04 0.000000000000000000e+00
Cu 6.323443956467488247e-01 1.055042328055285222e-01 0.000000000000000000e+00
Cu 6.323043836817276997e-01 2.106900081575713013e-01 0.000000000000000000e+00
Cu 6.322786465906292674e-01 3.158871797610987575e-01 0.000000000000000000e+00
Cu 6.322660099694472624e-01 4.210914719141641838e-01 0.000000000000000000e+00
Cu 6.322645685960142092e-01 5.262978983115635945e-01 0.000000000000000000e+00
Cu 6.322706192150725490e-01 6.314982328131910627e-01 0.000000000000000000e+00
Cu 6.322494608883360012e-01 7.366686335272765174e-01 0.000000000000000000e+00
Cu 6.322496692682972874e-01 8.418844178964868252e-01 0.000000000000000000e+00
Cu 6.323107452919309868e-01 9.470854788375997479e-01 0.000000000000000000e+00
Cu 7.379060941326002210e-01 4.198338394799261560e-04 0.000000000000000000e+00
Cu 7.378334680382093724e-01 1.055677475318797937e-01 0.000000000000000000e+00
Cu 7.377809295548634072e-01 2.107342282506287356e-01 0.000000000000000000e+00
Cu 7.377467327963230792e-01 3.159141749802505394e-01 0.000000000000000000e+00
Cu 7.377299329774842374e-01 4.211031376415732552e-01 0.000000000000000000e+00
Cu 7.377302900934459284e-01 5.262973785933052762e-01 0.000000000000000000e+00
Cu 7.377448015783598656e-01 6.314937817828069067e-01 0.000000000000000000e+00
Cu 7.377771668427787199e-01 7.366880652847935806e-01 0.000000000000000000e+00
Cu 7.376099175922770090e-01 8.417951761712144654e-01 0.000000000000000000e+00
Cu 7.378332145731751890e-01 9.469993357370618536e-01 0.000000000000000000e+00
Cu 8.434668811920291720e-01 5.291655856130455301e-04 0.000000000000000000e+00
Cu 8.433739363964678493e-01 1.056497738581201190e-01 0.000000000000000000e+00
Cu 8.433061771893715086e-01 2.107915423242278929e-01 0.000000000000000000e+00
Cu 8.432615913563794585e-01 3.159481250958658394e-01 0.000000000000000000e+00
Cu 8.432393156681953217e-01 4.211142850119954373e-01 0.000000000000000000e+00
Cu 8.432389370578522447e-01 5.262857384859267462e-01 0.000000000000000000e+00
Cu 8.432635510925502453e-01 6.314587188381193261e-01 0.000000000000000000e+00
Cu 8.433107208963478429e-01 7.366264504567051619e-01 0.000000000000000000e+00
Cu 8.436070476868204882e-01 8.416958492453692209e-01 0.000000000000000000e+00
Cu 8.435185930925650499e-01 9.468613764343154493e-01 0.000000000000000000e+00
Cu 9.490938682408449623e-01 6.677228882711176185e-04 0.000000000000000000e+00
Cu 9.489769922166949589e-01 1.057554361975657914e-01 0.000000000000000000e+00
Cu 9.488919433654441349e-01 2.108661965482423462e-01 0.000000000000000000e+00
Cu 9.488360897096078661e-01 3.159918651612178553e-01 0.000000000000000000e+00
Cu 9.488084562043017645e-01 4.211259263496061611e-01 0.000000000000000000e+00
Cu 9.488102560997518919e-01 5.262620758498465223e-01 0.000000000000000000e+00
Cu 9.488455848151648997e-01 6.313907535454293951e-01 0.000000000000000000e+00
Cu 9.489512732576885767e-01 7.364863150460074781e-01 0.000000000000000000e+00
Cu 9.490743841442459416e-01 8.416279574283861420e-01 0.000000000000000000e+00
Cu 9.491740680943817621e-01 9.467474515418148329e-01 0.000000000000000000e+00
Cu 1.054798220998049096e+00 8.414362222589130821e-04 0.000000000000000000e+00
Cu 1.054654724851634251e+00 1.058905025513863368e-01 0.000000000000000000e+00
Cu 1.054551789657371508e+00 2.109631465922031934e-01 0.000000000000000000e+00
Cu 1.054485320647045699e+00 3.160489500608891777e-01 0.000000000000000000e+00
Cu 1.054453987165726581e+00 4.211402679872355836e-01 0.000000000000000000e+00
Cu 1.054459372757502900e+00 5.262304536517400377e-01 0.000000000000000000e+00
Cu 1.054509303352829885e+00 6.313122299332218912e-01 0.000000000000000000e+00
Cu 1.054594693646762060e+00 7.363985456972823584e-01 0.000000000000000000e+00
Cu 1.054708066987397386e+00 8.414847617960763415e-01 0.000000000000000000e+00
Cu 1.054863802821324192e+00 9.465483049720508912e-01 0.000000000000000000e+00
Cu 1.160590398420070946e+00 1.055786871752562462e-03 0.000000000000000000e+00
Cu 1.160419744574270329e+00 1.060606825910062195e-01 0.000000000000000000e+00
Cu 1.160300952554973675e+00 2.110876363073576345e-01 0.000000000000000000e+00
Cu 1.160226766162156808e+00 3.161236767998092945e-01 0.000000000000000000e+00
Cu 1.160193477852476507e+00 4.211612246067883980e-01 0.000000000000000000e+00
Cu 1.160200814800078195e+00 5.261970915323953557e-01 0.000000000000000000e+00
Cu 1.160246818383130041e+00 6.312344786136852015e-01 0.000000000000000000e+00
Cu 1.160329993445379015e+00 7.362739033284770862e-01 0.000000000000000000e+00
Cu 1.160456608935501066e+00 8.413071010913373282e-01 0.000000000000000000e+00
Cu 1.160636730225663715e+00 9.463193808412422303e-01 0.000000000000000000e+00
Cu 1.266479185696945065e+00 1.314329138132982414e-03 0.000000000000000000e+00
Cu 1.266284630242154652e+00 1.062702085161035676e-01 0.000000000000000000e+00
Cu 1.266156197117361826e+00 2.112439408104364036e-01 0.000000000000000000e+00
Cu 1.266080575125530183e+00 3.162199870440766669e-01 0.000000000000000000e+00
Cu 1.266048269504828960e+00 4.211921076750007598e-01 0.000000000000000000e+00
Cu 1.266053328504703535e+00 5.261625568930657915e-01 0.000000000000000000e+00
Cu 1.266094354728975357e+00 6.311367335422697344e-01 0.000000000000000000e+00
Cu 1.266176520657293469e+00 7.361159789286330080e-01 0.000000000000000000e+00
Cu 1.266310779893431215e+00 8.410936469323447850e-01 0.000000000000000000e+00
Cu 1.266510790461208291e+00 9.460548234128304257e-01 0.000000000000000000e+00
Cu 1.372470790306006938e+00 1.616558173926751617e-03 0.000000000000000000e+00
Cu 1.372261478401965329e+00 1.065194891523335852e-01 0.000000000000000000e+00
Cu 1.372135791287373729e+00 2.114326673691103164e-01 0.000000000000000000e+00
Cu 1.372070594567451840e+00 3.163384559029320253e-01 0.000000000000000000e+00
Cu 1.372045922691589093e+00 4.212327070642386539e-01 0.000000000000000000e+00
Cu 1.372049055605679024e+00 5.261223126101075565e-01 0.000000000000000000e+00
Cu 1.372079570962086548e+00 6.310181973279019862e-01 0.000000000000000000e+00
Cu 1.372149714319172542e+00 7.359265620471693303e-01 0.000000000000000000e+00
Cu 1.372279446935605662e+00 8.408429250843104663e-01 0.000000000000000000e+00
Cu 1.372491841301747284e+00 9.457498348608166516e-01 0.000000000000000000e+00
Cu 1.478568137272570970e+00 1.955186934568366522e-03 0.000000000000000000e+00
Cu 1.478362113610543593e+00 1.068018594250683406e-01 0.000000000000000000e+00
Cu 1.478260214033981335e+00 2.116463888452644326e-01 0.000000000000000000e+00
Cu 1.478224590497689617e+00 3.164718472673676009e-01 0.000000000000000000e+00
Cu 1.478219491906744176e+00 4.212785669468820382e-01 0.000000000000000000e+00
Cu 1.478221464218387071e+00 5.260781754684504818e-01 0.000000000000000000e+00
Cu 1.478230378195280803e+00 6.308859637591741620e-01 0.000000000000000000e+00
Cu 1.478269395760180682e+00 7.357133249247805873e-01 0.000000000000000000e+00
Cu 1.478373975349892122e+00 8.405603494913639340e-01 0.000000000000000000e+00
Cu 1.478581770264717044e+00 9.454099698122775397e-01 0.000000000000000000e+00
Cu 1.584769948590438293e+00 2.312416663231241058e-03 0.000000000000000000e+00
Cu 1.584599875208943409e+00 1.070992068769458377e-01 0.000000000000000000e+00
Cu 1.584554692984632585e+00 2.118636244405876223e-01 0.000000000000000000e+00
Cu 1.584573029204803696e+00 3.165995734936274952e-01 0.000000000000000000e+00
Cu 1.584599157213260723e+00 4.213204310012310660e-01 0.000000000000000000e+00
Cu 1.584600418460803350e+00 5.260383875900908057e-01 0.000000000000000000e+00
Cu 1.584576736484682113e+00 6.307599537786037214e-01 0.000000000000000000e+00
Cu 1.584560580102883254e+00 7.354972383057413188e-01 0.000000000000000000e+00
Cu 1.584607444474087634e+00 8.402634605990668692e-01 0.000000000000000000e+00
Cu 1.584778498094305821e+00 9.450523275437436865e-01 0.000000000000000000e+00
Cu 1.691068255441743773e+00 2.652982601780648226e-03 0.000000000000000000e+00
Cu 1.690994864025954669e+00 1.073738855086397020e-01 0.000000000000000000e+00
Cu 1.691054985980472436e+00 2.120403080906246296e-01 0.000000000000000000e+00
Cu 1.691145340263226604e+00 3.166839506970747231e-01 0.000000000000000000e+00
Cu 1.691199403529068057e+00 4.213437636464288372e-01 0.000000000000000000e+00
Cu 1.691200213959115795e+00 5.260170259670040593e-01 0.000000000000000000e+00
Cu 1.691147710024662354e+00 6.306773183286730200e-01 0.000000000000000000e+00
Cu 1.691058718421489138e+00 7.353218710501053801e-01 0.000000000000000000e+00
Cu 1.690999608019762013e+00 8.399895245119657350e-01 0.000000000000000000e+00
Cu 1.691073495295873919e+00 9.447118084555191642e-01 0.000000000000000000e+00
Cu 1.797441255022053541e+00 2.903591921875402042e-03 0.000000000000000000e+00
Cu 1.797588290063224070e+00 1.075485893197739018e-01 0.000000000000000000e+00
Cu 1.797811853852368191e+00 2.120978666069149310e-01 0.000000000000000000e+00
Cu 1.797953743074579780e+00 3.166832698067331697e-01 0.000000000000000000e+00
Cu 1.798007695375595905e+00 4.213399881909296041e-01 0.000000000000000000e+00
Cu 1.798008227030305273e+00 5.260223970277809746e-01 0.000000000000000000e+00
Cu 1.797955289178542859e+00 6.306794456278211891e-01 0.000000000000000000e+00
Cu 1.797814264292796116e+00 7.352654656858291782e-01 0.000000000000000000e+00
Cu 1.797591306323697458e+00 8.398155560830961042e-01 0.000000000000000000e+00
Cu 1.797444509261709289e+00 9.444614214112605488e-01 0.000000000000000000e+00
Cu 1.903841273662633116e+00 2.889138905508159202e-03 0.000000000000000000e+00
Cu 1.904476987379315256e+00 1.074412855822017981e-01 0.000000000000000000e+00
Cu 1.904845357835769581e+00 2.119496948119488633e-01 0.000000000000000000e+00
Cu 1.904963737015076708e+00 3.166021099019935003e-01 0.000000000000000000e+00
Cu 1.904998506830734017e+00 4.213162988457655467e-01 0.000000000000000000e+00
Cu 1.904998876161846821e+00 5.260471214486360791e-01 0.000000000000000000e+00
Cu 1.904964808840649892e+00 6.307615567839335302e-01 0.000000000000000000e+00
Cu 1.904847021016447428e+00 7.354144198939737143e-01 0.000000000000000000e+00
Cu 1.904479051747693052e+00 8.399233861856012506e-01 0.000000000000000000e+00
Cu 1.903843478899523989e+00 9.444760571372331492e-01 0.000000000000000000e+00
Cu 2.010189165704648673e+00 1.870025703815767588e-03 0.000000000000000000e+00
Cu 2.011686885723727336e+00 1.068008711807805627e-01 0.000000000000000000e+00
Cu 2.012029981573698389e+00 2.116787037730944732e-01 0.000000000000000000e+00
Cu 2.012138187156456759e+00 3.164998042348518004e-01 0.000000000000000000e+00
Cu 2.012165412555465771e+00 4.212904905516156040e-01 0.000000000000000000e+00
Cu 2.012165690476432900e+00 5.260732521603328493e-01 0.000000000000000000e+00
Cu 2.012138996793584766e+00 6.308641642292033280e-01 0.000000000000000000e+00
Cu 2.012031249491511353e+00 7.356856701571758972e-01 0.000000000000000000e+00
Cu 2.011688487304941209e+00 8.405639874283267199e-01 0.000000000000000000e+00
Cu 2.010190930490392880e+00 9.454952249102581696e-01 0.000000000000000000e+00
