200

Cu 0.000000000000000000e+00 6.211534380365612423e-02 0.000000000000000000e+00
Cu 0.000000000000000000e+00 1.554045495010391575e-01 0.000000000000000000e+00
Cu 0.000000000000000000e+00 2.469194260898655013e-01 0.000000000000000000e+00
Cu 0.000000000000000000e+00 3.376437385116137779e-01 0.000000000000000000e+00
Cu 0.000000000000000000e+00 4.280887764771209025e-01 0.000000000000000000e+00
Cu 0.000000000000000000e+00 5.185200198082317025e-01 0.000000000000000000e+00
Cu 0.000000000000000000e+00 6.091554338882678721e-01 0.000000000000000000e+00
Cu 0.000000000000000000e+00 7.002340994417173281e-01 0.000000000000000000e+00
Cu 0.000000000000000000e+00 7.922132330272894096e-01 0.000000000000000000e+00
Cu 0.000000000000000000e+00 8.859847375455301988e-01 0.000000000000000000e+00
Cu 1.389463541516358647e-01 6.835890939815508771e-02 0.000000000000000000e+00
Cu 1.374561748982814913e-01 1.575623276100898695e-01 0.000000000000000000e+00
Cu 1.374392863156436717e-01 2.478244883049785519e-01 0.000000000000000000e+00
Cu 1.373757257057163506e-01 3.380770730788816847e-01 0.000000000000000000e+00
Cu 1.372549962632371445e-01 4.282370735241249893e-01 0.000000000000000000e+00
Cu 1.370570672004174095e-01 5.184305746489643596e-01 0.000000000000000000e+00
Cu 1.367991782034451709e-01 6.087906583007393069e-01 0.000000000000000000e+00
Cu 1.365285062267636851e-01 6.994203556527566201e-01 0.000000000000000000e+00
Cu 1.362751962020853358e-01 7.902029959284299077e-01 0.000000000000000000e+00
Cu 1.375311226276852983e-01 8.800510831169873205e-01 0.000000000000000000e+00
Cu 2.771900881303839270e-01 7.127464692492682663e-02 0.000000000000000000e+00
Cu 2.759920116462137862e-01 1.601379805639180365e-01 0.000000000000000000e+00
Cu 2.753530972843524216e-01 2.493595370472547201e-01 0.000000000000000000e+00
Cu 2.750971039570300203e-01 3.389534961945749325e-01 0.000000000000000000e+00
Cu 2.747926614201672835e-01 4.286447502653168429e-01 0.000000000000000000e+00
Cu 2.743874304378325357e-01 5.184092416712418050e-01 0.000000000000000000e+00
Cu 2.739207792661050855e-01 6.082913567303555036e-01 0.000000000000000000e+00
Cu 2.734996061806737044e-01 6.982550322204034154e-01 0.000000000000000000e+00
Cu 2.735653002045888571e-01 7.880234046611552801e-01 0.000000000000000000e+00
Cu 2.743094296967170109e-01 8.775854511789378254e-01 0.000000000000000000e+00
Cu 4.153381915786678036e-01 7.325790931182982191e-02 0.000000000000000000e+00
Cu 4.143882679442491002e-01 1.620585342510354743e-01 0.000000000000000000e+00
Cu 4.136903465523370516e-01 2.509855468350329910e-01 0.000000000000000000e+00
Cu 4.132178459026890627e-01 3.400949678751274963e-01 0.000000000000000000e+00
Cu 4.127502953140803621e-01 4.292982154585675558e-01 0.000000000000000000e+00
Cu 4.121286061517712707e-01 5.185291927538971946e-01 0.000000000000000000e+00
Cu 4.114284635455945360e-01 6.078480358852296206e-01 0.000000000000000000e+00
Cu 4.108661342497463287e-01 6.972517711259529349e-01 0.000000000000000000e+00
Cu 4.106427323555854603e-01 7.867198688988999988e-01 0.000000000000000000e+00
Cu 4.108516343175870889e-01 8.762869591295047167e-01 0.000000000000000000e+00
Cu 5.534807796067930941e-01 7.478877794148698632e-02 0.000000000000000000e+00
Cu 5.527310503767505212e-01 1.635647145792815949e-01 0.000000000000000000e+00
Cu 5.521306854183121171e-01 2.524016746734965011e-01 0.000000000000000000e+00
Cu 5.516473665293124551e-01 3.413065451944904960e-01 0.000000000000000000e+00
Cu 5.511833877605387677e-01 4.302169368524276227e-01 0.000000000000000000e+00
Cu 5.503924058840059530e-01 5.189327650036466011e-01 0.000000000000000000e+00
Cu 5.493208667162226000e-01 6.076342088614100634e-01 0.000000000000000000e+00
Cu 5.483161067694006796e-01 6.966678935571983811e-01 0.000000000000000000e+00
Cu 5.475434467791098214e-01 7.860765203975003113e-01 0.000000000000000000e+00
Cu 5.471156555643879038e-01 8.757737811443538911e-01 0.000000000000000000e+00
Cu 6.916560038386414533e-01 7.600362006835166551e-02 0.000000000000000000e+00
Cu 6.910827403272766789e-01 1.647581272193066049e-01 0.000000000000000000e+00
Cu 6.906163413369675874e-01 2.535680816757198697e-01 0.000000000000000000e+00
Cu 6.902573673448305636e-01 3.424351924244633527e-01 0.000000000000000000e+00
Cu 6.898757567434488092e-01 4.312839400136072032e-01 0.000000000000000000e+00
Cu 6.894456934105872570e-01 5.199646230207902731e-01 0.000000000000000000e+00
Cu 6.877208148773334973e-01 6.078396065486502131e-01 0.000000000000000000e+00
Cu 6.857193137673025518e-01 6.963244885718011812e-01 0.000000000000000000e+00
Cu 6.841716958637653612e-01 7.860913337856547667e-01 0.000000000000000000e+00
Cu 6.829427057408915536e-01 8.762048546330570842e-01 0.000000000000000000e+00
Cu 8.298999405599619683e-01 7.694449486359448975e-02 0.000000000000000000e+00
Cu 8.294831225738970026e-01 1.656626860008142688e-01 0.000000000000000000e+00
Cu 8.291574026834015454e-01 2.544535039849316616e-01 0.000000000000000000e+00
Cu 8.289118735917487824e-01 3.433342782088524281e-01 0.000000000000000000e+00
Cu 8.287880814993608958e-01 4.323040165507323063e-01 0.000000000000000000e+00
Cu 8.284016667070241979e-01 5.212366066604317005e-01 0.000000000000000000e+00
Cu 8.284517728339575449e-01 6.099649554031882914e-01 0.000000000000000000e+00
Cu 8.227046749920655655e-01 6.955556797502301380e-01 0.000000000000000000e+00
Cu 8.195068852738864873e-01 7.864327520297162977e-01 0.000000000000000000e+00
Cu 8.184879994550682270e-01 8.784484350672389086e-01 0.000000000000000000e+00
Cu 9.682557959224480371e-01 7.762813565554316231e-02 0.000000000000000000e+00
Cu 9.679817162462296398e-01 1.662834219325133034e-01 0.000000000000000000e+00
Cu 9.677671711160481527e-01 2.550220893645456233e-01 0.000000000000000000e+00
Cu 9.676550471236554651e-01 3.438830837754805470e-01 0.000000000000000000e+00
Cu 9.675776149746423416e-01 4.329136881864885100e-01 0.000000000000000000e+00
Cu 9.678327633978942579e-01 5.222086214103387469e-01 0.000000000000000000e+00
Cu 9.669791626496743175e-01 6.118409138922041857e-01 0.000000000000000000e+00
Cu 9.703307130797469426e-01 7.024544090434764465e-01 0.000000000000000000e+00
Cu 9.415825414819668504e-01 7.828216462590119606e-01 0.000000000000000000e+00
Cu 9.605573638724498320e-01 8.764360924518687090e-01 0.000000000000000000e+00
Cu 1.106777187675248575e+00 7.807493820161973130e-02 0.000000000000000000e+00
Cu 1.106626807015292036e+00 1.666343523747060296e-01 0.000000000000000000e+00
Cu 1.106522070343981534e+00 2.552669671288043673e-01 0.000000000000000000e+00
Cu 1.106479209697017518e+00 3.440056411610680209e-01 0.000000000000000000e+00
Cu 1.106609139145355636e+00 4.328986102118571599e-01 0.000000000000000000e+00
Cu 1.106629569562428861e+00 5.220476694903108950e-01 0.000000000000000000e+00
Cu 1.107977332405598148e+00 6.115303027326390861e-01 0.000000000000000000e+00
Cu 1.105269604332289157e+00 7.020409230728321681e-01 0.000000000000000000e+00
Cu 1.134701313270229495e+00 7.820247366299607483e-01 0.000000000000000000e+00
Cu 1.116564633478948965e+00 8.756919902733671934e-01 0.000000000000000000e+00
Cu 1.245513114630321549e+00 7.831911997183153840e-02 0.000000000000000000e+00
Cu 1.245476857667511483e+00 1.667524288002069921e-01 0.000000000000000000e+00
Cu 1.245472770128648099e+00 2.552230801452797238e-01 0.000000000000000000e+00
Cu 1.245566585518172342e+00 3.437276662216308121e-01 0.000000000000000000e+00
Cu 1.245749816452238257e+00 4.322668320191959679e-01 0.000000000000000000e+00
Cu 1.246423792196078795e+00 5.207394507445834986e-01 0.000000000000000000e+00
Cu 1.246853421391625139e+00 6.090215901203186455e-01 0.000000000000000000e+00
Cu 1.253254127837581278e+00 6.941589289987352140e-01 0.000000000000000000e+00
Cu 1.257221131924535884e+00 7.846202530692431010e-01 0.000000000000000000e+00
Cu 1.259124719121841318e+00 8.762608556614960298e-01 0.000000000000000000e+00
Cu 1.384500575308932779e+00 7.840978272789153602e-02 0.000000000000000000e+00
Cu 1.384567309741584928e+00 1.666992877252891914e-01 0.000000000000000000e+00
Cu 1.384694616209844131e+00 2.549697498063439038e-01 0.000000000000000000e+00
Cu 1.384923051458176069e+00 3.431776034952248033e-01 0.000000000000000000e+00
Cu 1.385396129345046079e+00 4.312500778739358775e-01 0.000000000000000000e+00
Cu 1.386121946441105202e+00 5.190969333188225621e-01 0.000000000000000000e+00
Cu 1.388341185790252785e+00 6.061563527537303653e-01 0.000000000000000000e+00
Cu 1.391015264176516997e+00 6.938999994032094554e-01 0.000000000000000000e+00
Cu 1.393402586035909829e+00 7.830159115812245219e-01 0.000000000000000000e+00
Cu 1.395540359783735473e+00 8.725359485151710226e-01 0.000000000000000000e+00
Cu 1.523745401801353649e+00 7.840414579119422966e-02 0.000000000000000000e+00
Cu 1.523917302499585569e+00 1.665518815610842196e-01 0.000000000000000000e+00
Cu 1.524195575139557279e+00 2.546192948480934803e-01 0.000000000000000000e+00
Cu 1.524628850757953513e+00 3.425275236340242779e-01 0.000000000000000000e+00
Cu 1.525264908795607388e+00 4.302258152942749492e-01 0.000000000000000000e+00
Cu 1.526385360243253775e+00 5.176255099638186197e-01 0.000000000000000000e+00
Cu 1.527929793247423174e+00 6.050600338979033044e-01 0.000000000000000000e+00
Cu 1.529597312427354305e+00 6.929950352389064872e-01 0.000000000000000000e+00
Cu 1.531234959366820414e+00 7.814957732770945187e-01 0.000000000000000000e+00
Cu 1.532682593296839313e+00 8.704005910155447889e-01 0.000000000000000000e+00
Cu 1.663217479997676662e+00 7.835059946502437311e-02 0.000000000000000000e+00
Cu 1.663507130144534996e+00 1.663834204990929100e-01 0.000000000000000000e+00
Cu 1.663980371804034908e+00 2.542765287467987911e-01 0.000000000000000000e+00
Cu 1.664614358574817876e+00 3.419471918019624246e-01 0.000000000000000000e+00
Cu 1.665435054479801336e+00 4.293780555684529321e-01 0.000000000000000000e+00
Cu 1.666433047391685740e+00 5.167027183149939251e-01 0.000000000000000000e+00
Cu 1.667519744766714496e+00 6.041815023771439641e-01 0.000000000000000000e+00
Cu 1.668614466454966028e+00 6.920205850112258750e-01 0.000000000000000000e+00
Cu 1.669675479145797059e+00 7.802819401080597350e-01 0.000000000000000000e+00
Cu 1.670626401304004194e+00 8.688733317086810848e-01 0.000000000000000000e+00
Cu 1.802841812669050414e+00 7.826467933106685815e-02 0.000000000000000000e+00
Cu 1.803294425578009896e+00 1.662314364107609077e-01 0.000000000000000000e+00
Cu 1.804018229949464036e+00 2.540035687573838907e-01 0.000000000000000000e+00
Cu 1.804896356859466922e+00 3.415020722477326576e-01 0.000000000000000000e+00
Cu 1.805812327636367565e+00 4.287786698003388519e-01 0.000000000000000000e+00
Cu 1.806658466307473843e+00 5.160037020072237857e-01 0.000000000000000000e+00
Cu 1.807375658489948744e+00 6.033920404391218684e-01 0.000000000000000000e+00
Cu 1.807979618394751187e+00 6.911122069807187351e-01 0.000000000000000000e+00
Cu 1.808533555441582008e+00 7.792239371541167525e-01 0.000000000000000000e+00
Cu 1.809106055627594634e+00 8.676355407168374612e-01 0.000000000000000000e+00
Cu 1.942499578784602443e+00 7.809827420169741796e-02 0.000000000000000000e+00
Cu 1.943211966402429658e+00 1.660671138341844044e-01 0.000000000000000000e+00
Cu 1.944299499363032924e+00 2.537738857137267767e-01 0.000000000000000000e+00
Cu 1.945494451587244766e+00 3.411603647621642144e-01 0.000000000000000000e+00
Cu 1.946542810262014367e+00 4.283224889058575013e-01 0.000000000000000000e+00
Cu 1.947263815635529083e+00 5.154405056781351524e-01 0.000000000000000000e+00
Cu 1.947613949611593398e+00 6.027135380331399839e-01 0.000000000000000000e+00
Cu 1.947696220449992133e+00 6.903114253828388502e-01 0.000000000000000000e+00
Cu 1.947708009853506894e+00 7.783146767329220950e-01 0.000000000000000000e+00
Cu 1.947878636057163826e+00 8.666410749066467689e-01 0.000000000000000000e+00
Cu 2.082017075299060771e+00 7.770713466373468936e-02 0.000000000000000000e+00
Cu 2.083182447493897360e+00 1.657624262853349684e-01 0.000000000000000000e+00
Cu 2.084835602215625805e+00 2.534477135147415461e-01 0.000000000000000000e+00
Cu 2.086492086430654425e+00 3.407661684915528899e-01 0.000000000000000000e+00
Cu 2.087750226340410631e+00 4.279004207789749992e-01 0.000000000000000000e+00
Cu 2.088376138273649207e+00 5.150213005511643516e-01 0.000000000000000000e+00
Cu 2.088333837806240378e+00 6.022484829438091714e-01 0.000000000000000000e+00
Cu 2.087791623121511453e+00 6.897426000477852037e-01 0.000000000000000000e+00
Cu 2.087100877358115003e+00 7.776684294210678416e-01 0.000000000000000000e+00
Cu 2.086711150513091084e+00 8.660054635456586603e-01 0.000000000000000000e+00
Cu 2.221128832511317430e+00 7.680097948885683534e-02 0.000000000000000000e+00
Cu 2.223128718029267148e+00 1.650481202424093907e-01 0.000000000000000000e+00
Cu 2.225702200656408891e+00 2.527198933134869319e-01 0.000000000000000000e+00
Cu 2.227991462167243863e+00 3.400413164474430094e-01 0.000000000000000000e+00
Cu 2.229471425557512987e+00 4.273801628821511933e-01 0.000000000000000000e+00
Cu 2.230030293725077328e+00 5.148147919672704242e-01 0.000000000000000000e+00
Cu 2.229635694835391924e+00 6.022263611911924386e-01 0.000000000000000000e+00
Cu 2.228339165320713633e+00 6.896846055540769571e-01 0.000000000000000000e+00
Cu 2.226620813390025155e+00 7.775416282206363272e-01 0.000000000000000000e+00
Cu 2.225308590784682572e+00 8.660034679756293263e-01 0.000000000000000000e+00
Cu 2.359344543368419700e+00 7.481426341491245746e-02 0.000000000000000000e+00
Cu 2.363033276698948804e+00 1.633939446472257029e-01 0.000000000000000000e+00
Cu 2.367118832224237135e+00 2.510055533723166699e-01 0.000000000000000000e+00
Cu 2.370044585025970818e+00 3.386151976604621083e-01 0.000000000000000000e+00
Cu 2.371583628562135448e+00 4.266680127171894044e-01 0.000000000000000000e+00
Cu 2.372100529337824337e+00 5.148645531003317455e-01 0.000000000000000000e+00
Cu 2.371563662581860132e+00 6.029760493463032223e-01 0.000000000000000000e+00
Cu 2.369550455687247315e+00 6.906957636799267997e-01 0.000000000000000000e+00
Cu 2.366239453809851678e+00 7.784506566329009170e-01 0.000000000000000000e+00
Cu 2.363164538922668978e+00 8.671896296347958444e-01 0.000000000000000000e+00
Cu 2.495460476230249025e+00 7.039211141197895816e-02 0.000000000000000000e+00
Cu 2.503270681344993420e+00 1.594811594043394343e-01 0.000000000000000000e+00
Cu 2.509450145937661247e+00 2.473861143091805881e-01 0.000000000000000000e+00
Cu 2.512306172630176970e+00 3.364588899663721322e-01 0.000000000000000000e+00
Cu 2.513910607600791547e+00 4.257557712838622721e-01 0.000000000000000000e+00
Cu 2.514404519778337121e+00 5.151287624484740535e-01 0.000000000000000000e+00
Cu 2.513759576357343484e+00 6.044867279400172322e-01 0.000000000000000000e+00
Cu 2.511775366091022033e+00 6.936650524304837084e-01 0.000000000000000000e+00
Cu 2.506327084175499209e+00 7.817065712576342085e-01 0.000000000000000000e+00
Cu 2.499070205085033969e+00 8.709197364560493648e-01 0.000000000000000000e+00
Cu 2.624914601833363559e+00 5.668863984263194239e-02 0.000000000000000000e+00
Cu 2.645908588286920882e+00 1.501370887936103182e-01 0.000000000000000000e+00
Cu 2.651353762970775740e+00 2.427352886537804122e-01 0.000000000000000000e+00
Cu 2.654717675145414013e+00 3.340655152505794812e-01 0.000000000000000000e+00
Cu 2.656308671752053652e+00 4.247955669752073726e-01 0.000000000000000000e+00
Cu 2.656791769368010314e+00 5.154018459212419412e-01 0.000000000000000000e+00
Cu 2.656141034506177334e+00 6.062125586949603795e-01 0.000000000000000000e+00
Cu 2.653643637916295983e+00 6.976898260615341796e-01 0.000000000000000000e+00
Cu 2.648935124669012264e+00 7.904567725014972623e-01 0.000000000000000000e+00
Cu 2.628499263015070753e+00 8.840943562763722285e-01 0.000000000000000000e+00
