200

Cu 0.000000000000000000e+00 4.688320570783476027e-02 0.000000000000000000e+00
Cu 0.000000000000000000e+00 1.431145893667095104e-01 0.000000000000000000e+00
Cu 0.000000000000000000e+00 2.380108410548459064e-01 0.000000000000000000e+00
Cu 0.000000000000000000e+00 3.323033864329195675e-01 0.000000000000000000e+00
Cu 0.000000000000000000e+00 4.263871343482643628e-01 0.000000000000000000e+00
Cu 0.000000000000000000e+00 5.204641874685205227e-01 0.000000000000000000e+00
Cu 0.000000000000000000e+00 6.146982776469195331e-01 0.000000000000000000e+00
Cu 0.000000000000000000e+00 7.092710098451037171e-01 0.000000000000000000e+00
Cu 0.000000000000000000e+00 8.045354569281373269e-01 0.000000000000000000e+00
Cu 0.000000000000000000e+00 9.011558015146733380e-01 0.000000000000000000e+00
Cu 1.308175759758962720e-01 5.185897802357727904e-02 0.000000000000000000e+00
Cu 1.295063686840283446e-01 1.448345993287876721e-01 0.000000000000000000e+00
Cu 1.294595775998689524e-01 2.387309378471948185e-01 0.000000000000000000e+00
Cu 1.294022044794855553e-01 3.326497423552666199e-01 0.000000000000000000e+00
Cu 1.293037084946565829e-01 4.265080128357788825e-01 0.000000000000000000e+00
Cu 1.291505045447211286e-01 5.203979207113735850e-01 0.000000000000000000e+00
Cu 1.289547856303500661e-01 6.144160150434629930e-01 0.000000000000000000e+00
Cu 1.287494032508069985e-01 7.086345835488528921e-01 0.000000000000000000e+00
Cu 1.285770086479392782e-01 8.029465472147394589e-01 0.000000000000000000e+00
Cu 1.296776260901663924e-01 8.964513029181033765e-01 0.000000000000000000e+00
Cu 2.610344495942291121e-01 5.419933597369543804e-02 0.000000000000000000e+00
Cu 2.599452605988191722e-01 1.469542881030281578e-01 0.000000000000000000e+00
Cu 2.593529610961611831e-01 2.399945617270046461e-01 0.000000000000000000e+00
Cu 2.591112159173986629e-01 3.333704090378192819e-01 0.000000000000000000e+00
Cu 2.588563658970345904e-01 4.268454156678163081e-01 0.000000000000000000e+00
Cu 2.585405715189336706e-01 5.203893220798909702e-01 0.000000000000000000e+00
Cu 2.581951380779831662e-01 6.140240013997403379e-01 0.000000000000000000e+00
Cu 2.579067535879841500e-01 7.076996063509708446e-01 0.000000000000000000e+00
Cu 2.580347653985627376e-01 8.011774402850021515e-01 0.000000000000000000e+00
Cu 2.587268591813374763e-01 8.944974626212018887e-01 0.000000000000000000e+00
Cu 3.911522986299866278e-01 5.583684729211919884e-02 0.000000000000000000e+00
Cu 3.902747597127139145e-01 1.485537246058495353e-01 0.000000000000000000e+00
Cu 3.896245105994982638e-01 2.413654071418109004e-01 0.000000000000000000e+00
Cu 3.891865270866952109e-01 3.343328573660231395e-01 0.000000000000000000e+00
Cu 3.887844026615986381e-01 4.273928445904563445e-01 0.000000000000000000e+00
Cu 3.882929445555924342e-01 5.204903411825463344e-01 0.000000000000000000e+00
Cu 3.877851267797916002e-01 6.136627898024562544e-01 0.000000000000000000e+00
Cu 3.874261353397382979e-01 7.068802862996251823e-01 0.000000000000000000e+00
Cu 3.873447179104239080e-01 8.001200359929893091e-01 0.000000000000000000e+00
Cu 3.875844827514642321e-01 8.934443428032528001e-01 0.000000000000000000e+00
Cu 5.212727048224959914e-01 5.713245186134326137e-02 0.000000000000000000e+00
Cu 5.205643182334374064e-01 1.498289342223552700e-01 0.000000000000000000e+00
Cu 5.199966825307478224e-01 2.425696684608121545e-01 0.000000000000000000e+00
Cu 5.195507367925797926e-01 3.353658432230179343e-01 0.000000000000000000e+00
Cu 5.191412335706351300e-01 4.281659762742348607e-01 0.000000000000000000e+00
Cu 5.185097704238682548e-01 5.208151173721945471e-01 0.000000000000000000e+00
Cu 5.177108695117049741e-01 6.134725682510612232e-01 0.000000000000000000e+00
Cu 5.170404009727147532e-01 7.064041103564216995e-01 0.000000000000000000e+00
Cu 5.165495798412162998e-01 7.996068362080853698e-01 0.000000000000000000e+00
Cu 5.162584443407710610e-01 8.930184485896642821e-01 0.000000000000000000e+00
Cu 6.514397568640961644e-01 5.819067437067281662e-02 0.000000000000000000e+00
Cu 6.508777762979969239e-01 1.508581141827447236e-01 0.000000000000000000e+00
Cu 6.504247571981542908e-01 2.435686081383253987e-01 0.000000000000000000e+00
Cu 6.500809206292877951e-01 3.363240206679063427e-01 0.000000000000000000e+00
Cu 6.497610364864221388e-01 4.290648440331063518e-01 0.000000000000000000e+00
Cu 6.493917571703399227e-01 5.216504401551848025e-01 0.000000000000000000e+00
Cu 6.480878791981833364e-01 6.136055309542584046e-01 0.000000000000000000e+00
Cu 6.466069522250019741e-01 7.061073925451679667e-01 0.000000000000000000e+00
Cu 6.455901979473709362e-01 7.996403307058305154e-01 0.000000000000000000e+00
Cu 6.446606833519332724e-01 8.933953076886389510e-01 0.000000000000000000e+00
Cu 7.816957721752643140e-01 5.904491914491354076e-02 0.000000000000000000e+00
Cu 7.812614867121984163e-01 1.516623157485993134e-01 0.000000000000000000e+00
Cu 7.809213128773253576e-01 2.443376060653057735e-01 0.000000000000000000e+00
Cu 7.806787029546717882e-01 3.370859251758278052e-01 0.000000000000000000e+00
Cu 7.805509729261463914e-01 4.299036563823069312e-01 0.000000000000000000e+00
Cu 7.803061615439912391e-01 5.226948134910709420e-01 0.000000000000000000e+00
Cu 7.802402429120738336e-01 6.152676236542129473e-01 0.000000000000000000e+00
Cu 7.760153889553306206e-01 7.054360493176637936e-01 0.000000000000000000e+00
Cu 7.734246828806534690e-01 7.999431980652631502e-01 0.000000000000000000e+00
Cu 7.731098676227503574e-01 8.951940874401621562e-01 0.000000000000000000e+00
Cu 9.120895238738094823e-01 5.971297247662612356e-02 0.000000000000000000e+00
Cu 9.117667174786429074e-01 1.522513226911638151e-01 0.000000000000000000e+00
Cu 9.115154817438391177e-01 2.448569677611648621e-01 0.000000000000000000e+00
Cu 9.113684155879523408e-01 3.375608853027219913e-01 0.000000000000000000e+00
Cu 9.113030131943636869e-01 4.304015413921077893e-01 0.000000000000000000e+00
Cu 9.114705390367801030e-01 5.234493452504292987e-01 0.000000000000000000e+00
Cu 9.110325200520862365e-01 6.167676365531601368e-01 0.000000000000000000e+00
Cu 9.131456946796852048e-01 7.107475064499301221e-01 0.000000000000000000e+00
Cu 8.916852585366645823e-01 7.972046531428154115e-01 0.000000000000000000e+00
Cu 9.064375705176386244e-01 8.935628757079583373e-01 0.000000000000000000e+00
Cu 1.042675645581312427e+00 6.021625250841322607e-02 0.000000000000000000e+00
Cu 1.042447157713601191e+00 1.526431545530964606e-01 0.000000000000000000e+00
Cu 1.042275694455910395e+00 2.451301821664736424e-01 0.000000000000000000e+00
Cu 1.042185837810428506e+00 3.377028045456959005e-01 0.000000000000000000e+00
Cu 1.042244507543609311e+00 4.303999888411451646e-01 0.000000000000000000e+00
Cu 1.042320134093049910e+00 5.232972761722992638e-01 0.000000000000000000e+00
Cu 1.043246235483503703e+00 6.164633885620450782e-01 0.000000000000000000e+00
Cu 1.041806288319228280e+00 7.103190376491640423e-01 0.000000000000000000e+00
Cu 1.064023094093071942e+00 7.964388401379780547e-01 0.000000000000000000e+00
Cu 1.050202528575241878e+00 8.928065752356014739e-01 0.000000000000000000e+00
Cu 1.173504640697985435e+00 6.058494196224191441e-02 0.000000000000000000e+00
Cu 1.173359750174311378e+00 1.528710671412249200e-01 0.000000000000000000e+00
Cu 1.173264917440413502e+00 2.451891415506576855e-01 0.000000000000000000e+00
Cu 1.173269820768728433e+00 3.375351713652479657e-01 0.000000000000000000e+00
Cu 1.173394961445211715e+00 4.299059483826187522e-01 0.000000000000000000e+00
Cu 1.173891912642682778e+00 5.222259838272593768e-01 0.000000000000000000e+00
Cu 1.174438740017056837e+00 6.143364070993744264e-01 0.000000000000000000e+00
Cu 1.179344149391331253e+00 7.040400967494012674e-01 0.000000000000000000e+00
Cu 1.182768386313395315e+00 7.981070224734037044e-01 0.000000000000000000e+00
Cu 1.184062235943358354e+00 8.929539483207504791e-01 0.000000000000000000e+00
Cu 1.304614045556008906e+00 6.085770076690767000e-02 0.000000000000000000e+00
Cu 1.304545995206265019e+00 1.529841693764254773e-01 0.000000000000000000e+00
Cu 1.304550905301860908e+00 2.450958036480263003e-01 0.000000000000000000e+00
Cu 1.304670250892607575e+00 3.371521437662186593e-01 0.000000000000000000e+00
Cu 1.305010679662229611e+00 4.290938322937453142e-01 0.000000000000000000e+00
Cu 1.305640244566587338e+00 5.208303339142098531e-01 0.000000000000000000e+00
Cu 1.307436887793846036e+00 6.119534670110847729e-01 0.000000000000000000e+00
Cu 1.309623650344752477e+00 7.036864363730531702e-01 0.000000000000000000e+00
Cu 1.311538678139554381e+00 7.965262819687254359e-01 0.000000000000000000e+00
Cu 1.313474098769820797e+00 8.896278300679142381e-01 0.000000000000000000e+00
Cu 1.436014700789469467e+00 6.107699866293114788e-02 0.000000000000000000e+00
Cu 1.436028061609787576e+00 1.530423101675262576e-01 0.000000000000000000e+00
Cu 1.436158551416928608e+00 2.449371992915294338e-01 0.000000000000000000e+00
Cu 1.436445684600816675e+00 3.366908675522614081e-01 0.000000000000000000e+00
Cu 1.436943919646201939e+00 4.282568145403876092e-01 0.000000000000000000e+00
Cu 1.437862386147776839e+00 5.195790653468195242e-01 0.000000000000000000e+00
Cu 1.439137066388730180e+00 6.109561560701235461e-01 0.000000000000000000e+00
Cu 1.440506974921061722e+00 7.027591252777170006e-01 0.000000000000000000e+00
Cu 1.441923518072586008e+00 7.949978538204175438e-01 0.000000000000000000e+00
Cu 1.443320356387004955e+00 8.875348559893336819e-01 0.000000000000000000e+00
Cu 1.567682713109298298e+00 6.127693112647832757e-02 0.000000000000000000e+00
Cu 1.567795836712903235e+00 1.531021063256588211e-01 0.000000000000000000e+00
Cu 1.568094892706958676e+00 2.447991892183447316e-01 0.000000000000000000e+00
Cu 1.568562095508151177e+00 3.362913510713718135e-01 0.000000000000000000e+00
Cu 1.569213670447682452e+00 4.275696595254559473e-01 0.000000000000000000e+00
Cu 1.570031084436664948e+00 5.187627193614640086e-01 0.000000000000000000e+00
Cu 1.570932341885866723e+00 6.100975516764916007e-01 0.000000000000000000e+00
Cu 1.571871866749167346e+00 7.017344521957941117e-01 0.000000000000000000e+00
Cu 1.572853510365220808e+00 7.937123028644628153e-01 0.000000000000000000e+00
Cu 1.573842658890729274e+00 8.859638456998922829e-01 0.000000000000000000e+00
Cu 1.699552373832513119e+00 6.146278161124731770e-02 0.000000000000000000e+00
Cu 1.699813578453907903e+00 1.531904745155450998e-01 0.000000000000000000e+00
Cu 1.700341243040022432e+00 2.447316725045160790e-01 0.000000000000000000e+00
Cu 1.701030144573085545e+00 3.360140416587535372e-01 0.000000000000000000e+00
Cu 1.701771797481339776e+00 4.270887525505205340e-01 0.000000000000000000e+00
Cu 1.702466115795907564e+00 5.181149545262094813e-01 0.000000000000000000e+00
Cu 1.703068258580213712e+00 6.092855123902403136e-01 0.000000000000000000e+00
Cu 1.703612808029127956e+00 7.007462215833255570e-01 0.000000000000000000e+00
Cu 1.704178774486648562e+00 7.925497003475847624e-01 0.000000000000000000e+00
Cu 1.704844604865458191e+00 8.846221174632337148e-01 0.000000000000000000e+00
Cu 1.831515483688325840e+00 6.158337059623343601e-02 0.000000000000000000e+00
Cu 1.832023312606793963e+00 1.532741366020907159e-01 0.000000000000000000e+00
Cu 1.832890608693963364e+00 2.447049898273725155e-01 0.000000000000000000e+00
Cu 1.833878085073124664e+00 3.358239755450141972e-01 0.000000000000000000e+00
Cu 1.834753187056396673e+00 4.267223665281347778e-01 0.000000000000000000e+00
Cu 1.835350650682074480e+00 5.175710150150497624e-01 0.000000000000000000e+00
Cu 1.835640352120747387e+00 6.085580885282563246e-01 0.000000000000000000e+00
Cu 1.835733699728413049e+00 6.998435141512531210e-01 0.000000000000000000e+00
Cu 1.835824905362728465e+00 7.915054693688218235e-01 0.000000000000000000e+00
Cu 1.836129115447085791e+00 8.834770544942199821e-01 0.000000000000000000e+00
Cu 1.963414596837444792e+00 6.149999765647565231e-02 0.000000000000000000e+00
Cu 1.964358421854558223e+00 1.532273617694064616e-01 0.000000000000000000e+00
Cu 1.965758419018414083e+00 2.445796210967710882e-01 0.000000000000000000e+00
Cu 1.967184477443104651e+00 3.355691337371475846e-01 0.000000000000000000e+00
Cu 1.968268363431238566e+00 4.263715784775918838e-01 0.000000000000000000e+00
Cu 1.968793719540887333e+00 5.171515768273117208e-01 0.000000000000000000e+00
Cu 1.968735786496512263e+00 6.080261726638005459e-01 0.000000000000000000e+00
Cu 1.968265747650607800e+00 6.991522446743898556e-01 0.000000000000000000e+00
Cu 1.967717395843041839e+00 7.906924545118038106e-01 0.000000000000000000e+00
Cu 1.967497306256741352e+00 8.826431607586864292e-01 0.000000000000000000e+00
Cu 2.095013744401334588e+00 6.094022022008866585e-02 0.000000000000000000e+00
Cu 2.096760270659963066e+00 1.527899246587181015e-01 0.000000000000000000e+00
Cu 2.099020499009794705e+00 2.440571043254571026e-01 0.000000000000000000e+00
Cu 2.101036310982937305e+00 3.349810363536846469e-01 0.000000000000000000e+00
Cu 2.102333928820158349e+00 4.259144143592482057e-01 0.000000000000000000e+00
Cu 2.102809118525127641e+00 5.169293405163364330e-01 0.000000000000000000e+00
Cu 2.102438875287565345e+00 6.079184162666726454e-01 0.000000000000000000e+00
Cu 2.101285129593159162e+00 6.989478267098045983e-01 0.000000000000000000e+00
Cu 2.099790884679365366e+00 7.903597576656468116e-01 0.000000000000000000e+00
Cu 2.098694328234857576e+00 8.823809454830713328e-01 0.000000000000000000e+00
Cu 2.225890327689421522e+00 5.937844455429274609e-02 0.000000000000000000e+00
Cu 2.229243219106182394e+00 1.514483032255778405e-01 0.000000000000000000e+00
Cu 2.232878938362668375e+00 2.425791859175408238e-01 0.000000000000000000e+00
Cu 2.235449779518857039e+00 3.337202105634836657e-01 0.000000000000000000e+00
Cu 2.236806038392052276e+00 4.252656123310439851e-01 0.000000000000000000e+00
Cu 2.237250186203326052e+00 5.169496191816616015e-01 0.000000000000000000e+00
Cu 2.236759416608222306e+00 6.085400116971750872e-01 0.000000000000000000e+00
Cu 2.234988688050465910e+00 6.997656530281967102e-01 0.000000000000000000e+00
Cu 2.232053680075678059e+00 7.910087434623086500e-01 0.000000000000000000e+00
Cu 2.229287910124116312e+00 8.832072118530627236e-01 0.000000000000000000e+00
Cu 2.355046907561888503e+00 5.555078624911011925e-02 0.000000000000000000e+00
Cu 2.362212095678408730e+00 1.479378402609750065e-01 0.000000000000000000e+00
Cu 2.367559664765247263e+00 2.393470274428194933e-01 0.000000000000000000e+00
Cu 2.370094606268660087e+00 3.317682800345715943e-01 0.000000000000000000e+00
Cu 2.371473649061295319e+00 4.244312749968473519e-01 0.000000000000000000e+00
Cu 2.371900955654949072e+00 5.171665446943943811e-01 0.000000000000000000e+00
Cu 2.371355753816553946e+00 6.098765031141850645e-01 0.000000000000000000e+00
Cu 2.369590837998506672e+00 7.023801609130390089e-01 0.000000000000000000e+00
Cu 2.364908603054672653e+00 7.938961461191650359e-01 0.000000000000000000e+00
Cu 2.358279269149634150e+00 8.863859669619016390e-01 0.000000000000000000e+00
Cu 2.479141334557921184e+00 4.330731656419554987e-02 0.000000000000000000e+00
Cu 2.496966442958783006e+00 1.396212452818756666e-01 0.000000000000000000e+00
Cu 2.501931881844606131e+00 2.351230424594773494e-01 0.000000000000000000e+00
Cu 2.504805425715468825e+00 3.295915326526638323e-01 0.000000000000000000e+00
Cu 2.506190785222628836e+00 4.235508308273642220e-01 0.000000000000000000e+00
Cu 2.506609430193007526e+00 5.173987772043617817e-01 0.000000000000000000e+00
Cu 2.506043079437411336e+00 6.114207821000859910e-01 0.000000000000000000e+00
Cu 2.503935345197356277e+00 7.060035403658367903e-01 0.000000000000000000e+00
Cu 2.499642722791026728e+00 8.016404559005332331e-01 0.000000000000000000e+00
Cu 2.482358808379781401e+00 8.981070026120145933e-01 0.000000000000000000e+00
