200

Cu 0.000000000000000000e+00 5.692481266718774080e-02 0.000000000000000000e+00
Cu 0.000000000000000000e+00 1.512192574183405525e-01 0.000000000000000000e+00
Cu 0.000000000000000000e+00 2.438897697767317962e-01 0.000000000000000000e+00
Cu 0.000000000000000000e+00 3.358321169834944109e-01 0.000000000000000000e+00
Cu 0.000000000000000000e+00 4.275187851040156417e-01 0.000000000000000000e+00
Cu 0.000000000000000000e+00 5.191940944028734517e-01 0.000000000000000000e+00
Cu 0.000000000000000000e+00 6.110577895224625911e-01 0.000000000000000000e+00
Cu 0.000000000000000000e+00 7.033296737875833760e-01 0.000000000000000000e+00
Cu 0.000000000000000000e+00 7.964322013722672233e-01 0.000000000000000000e+00
Cu 0.000000000000000000e+00 8.911778933720923002e-01 0.000000000000000000e+00
Cu 1.361490884348919017e-01 6.274940959482168401e-02 0.000000000000000000e+00
Cu 1.347111226537486550e-01 1.532333037514835017e-01 0.000000000000000000e+00
Cu 1.346833929993188905e-01 2.447338234834381121e-01 0.000000000000000000e+00
Cu 1.346222752055198646e-01 3.362366969298079544e-01 0.000000000000000000e+00
Cu 1.345093821209638052e-01 4.276579809686620881e-01 0.000000000000000000e+00
Cu 1.343270663562788625e-01 5.191123386708786924e-01 0.000000000000000000e+00
Cu 1.340908369399785305e-01 6.107204426650763018e-01 0.000000000000000000e+00
Cu 1.338427212106602371e-01 7.025747222173444051e-01 0.000000000000000000e+00
Cu 1.336179431060156297e-01 7.945607680614554802e-01 0.000000000000000000e+00
Cu 1.348290471841516180e-01 8.856512510049380227e-01 0.000000000000000000e+00
Cu 2.716257398580301796e-01 6.547564929206063644e-02 0.000000000000000000e+00
Cu 2.704575994339694089e-01 1.556615792842992452e-01 0.000000000000000000e+00
Cu 2.698309609679432342e-01 2.461809241048253383e-01 0.000000000000000000e+00
Cu 2.695789578374139239e-01 3.370623507738199631e-01 0.000000000000000000e+00
Cu 2.692914253768338706e-01 4.280426186866884697e-01 0.000000000000000000e+00
Cu 2.689173100251638915e-01 5.190952179553798285e-01 0.000000000000000000e+00
Cu 2.684933613381220718e-01 6.102565175717878931e-01 0.000000000000000000e+00
Cu 2.681197568161686196e-01 7.014847563413424414e-01 0.000000000000000000e+00
Cu 2.682109583230999350e-01 7.925145693894490861e-01 0.000000000000000000e+00
Cu 2.689435936276228789e-01 8.833549704327016139e-01 0.000000000000000000e+00
Cu 4.070037361748867211e-01 6.734510941882367041e-02 0.000000000000000000e+00
Cu 4.060737169956153414e-01 1.574779849488179562e-01 0.000000000000000000e+00
Cu 4.053885381374868757e-01 2.477253006690006421e-01 0.000000000000000000e+00
Cu 4.049259492820257433e-01 3.381463724485412325e-01 0.000000000000000000e+00
Cu 4.044801575124199466e-01 4.286616262707906300e-01 0.000000000000000000e+00
Cu 4.039034186894441270e-01 5.192085939539773376e-01 0.000000000000000000e+00
Cu 4.032715912731302255e-01 6.098396308902123142e-01 0.000000000000000000e+00
Cu 4.027832102692046057e-01 7.005412703486137982e-01 0.000000000000000000e+00
Cu 4.026132171433446372e-01 7.912919693603075455e-01 0.000000000000000000e+00
Cu 4.028359040019072745e-01 8.821382996937071619e-01 0.000000000000000000e+00
Cu 5.423781281987393177e-01 6.879822721885620052e-02 0.000000000000000000e+00
Cu 5.416396784792596453e-01 1.589086464861712844e-01 0.000000000000000000e+00
Cu 5.410481054751010710e-01 2.490730395553932830e-01 0.000000000000000000e+00
Cu 5.405762463574781407e-01 3.393006426873012571e-01 0.000000000000000000e+00
Cu 5.401299241102973658e-01 4.295329940655991940e-01 0.000000000000000000e+00
Cu 5.393940600985540623e-01 5.195855768848574030e-01 0.000000000000000000e+00
Cu 5.384182483554411647e-01 6.096324711019341924e-01 0.000000000000000000e+00
Cu 5.375346839568271307e-01 6.999934671530194663e-01 0.000000000000000000e+00
Cu 5.368633584593031083e-01 7.906937344818842917e-01 0.000000000000000000e+00
Cu 5.364822747938957637e-01 8.816563879698198214e-01 0.000000000000000000e+00
Cu 6.777892255917972175e-01 6.996062334048844256e-02 0.000000000000000000e+00
Cu 6.772186607476731179e-01 1.600475009047324093e-01 0.000000000000000000e+00
Cu 6.767559912264951016e-01 2.501843471188310852e-01 0.000000000000000000e+00
Cu 6.764013855254381591e-01 3.403733517492266714e-01 0.000000000000000000e+00
Cu 6.760418830507602950e-01 4.305449836238176009e-01 0.000000000000000000e+00
Cu 6.756312223619133084e-01 5.205516672604895145e-01 0.000000000000000000e+00
Cu 6.740549588904499734e-01 6.098125371862926913e-01 0.000000000000000000e+00
Cu 6.722357238454412798e-01 6.996660130065835981e-01 0.000000000000000000e+00
Cu 6.708806411533344560e-01 7.907205974026496609e-01 0.000000000000000000e+00
Cu 6.697476533527095821e-01 8.820782064775622988e-01 0.000000000000000000e+00
Cu 8.132752949409050025e-01 7.087147976926702619e-02 0.000000000000000000e+00
Cu 8.128530132473796854e-01 1.609176630018044896e-01 0.000000000000000000e+00
Cu 8.125225249019404350e-01 2.510301964714081735e-01 0.000000000000000000e+00
Cu 8.122788889485705877e-01 3.412261613941509064e-01 0.000000000000000000e+00
Cu 8.121533164319130194e-01 4.315037664254015581e-01 0.000000000000000000e+00
Cu 8.118206842782929034e-01 5.217478965130523116e-01 0.000000000000000000e+00
Cu 8.118227995122729856e-01 6.117804258629290226e-01 0.000000000000000000e+00
Cu 8.066193007001057902e-01 6.989294779046315575e-01 0.000000000000000000e+00
Cu 8.036174569579298543e-01 7.910589424481866416e-01 0.000000000000000000e+00
Cu 8.028557843635821811e-01 8.841912828047102657e-01 0.000000000000000000e+00
Cu 9.488817059681767807e-01 7.154810962757383874e-02 0.000000000000000000e+00
Cu 9.485927942220160336e-01 1.615260219301563049e-01 0.000000000000000000e+00
Cu 9.483672303072154808e-01 2.515806251143297145e-01 0.000000000000000000e+00
Cu 9.482437614222037903e-01 3.417485282776537847e-01 0.000000000000000000e+00
Cu 9.481732730821575972e-01 4.320743898855176623e-01 0.000000000000000000e+00
Cu 9.483949733991300368e-01 5.226444377459387169e-01 0.000000000000000000e+00
Cu 9.476995005706358999e-01 6.135286726167612503e-01 0.000000000000000000e+00
Cu 9.505959592695716331e-01 7.052807107889783600e-01 0.000000000000000000e+00
Cu 9.243962840853345853e-01 7.877776534933649266e-01 0.000000000000000000e+00
Cu 9.419090953324005255e-01 8.823310312460174165e-01 0.000000000000000000e+00
Cu 1.084662545254382771e+00 7.201149651935255525e-02 0.000000000000000000e+00
Cu 1.084488644337478158e+00 1.618882685492133156e-01 0.000000000000000000e+00
Cu 1.084363161047362967e+00 2.518326522951821467e-01 0.000000000000000000e+00
Cu 1.084306331820823033e+00 3.418753187595980347e-01 0.000000000000000000e+00
Cu 1.084411399403965026e+00 4.320616961295880021e-01 0.000000000000000000e+00
Cu 1.084456609298002583e+00 5.224843832862601234e-01 0.000000000000000000e+00
Cu 1.085646614933870380e+00 6.132183095227727865e-01 0.000000000000000000e+00
Cu 1.083406453272083958e+00 7.048600436801081282e-01 0.000000000000000000e+00
Cu 1.110315974773685710e+00 7.869892618923152172e-01 0.000000000000000000e+00
Cu 1.093675272022907263e+00 8.815814201337551781e-01 0.000000000000000000e+00
Cu 1.220667650896435807e+00 7.229464860908905999e-02 0.000000000000000000e+00
Cu 1.220598442363139302e+00 1.620402884662124343e-01 0.000000000000000000e+00
Cu 1.220566479713894648e+00 2.518203933277869400e-01 0.000000000000000000e+00
Cu 1.220631464477475392e+00 3.416316654752855064e-01 0.000000000000000000e+00
Cu 1.220797500629598797e+00 4.314734179271906833e-01 0.000000000000000000e+00
Cu 1.221407845421520255e+00 5.212540456300627234e-01 0.000000000000000000e+00
Cu 1.221888515873923442e+00 6.108350386536527399e-01 0.000000000000000000e+00
Cu 1.227756867348428038e+00 6.975273008253247697e-01 0.000000000000000000e+00
Cu 1.231552240929747688e+00 7.892326996481670021e-01 0.000000000000000000e+00
Cu 1.233232680744119847e+00 8.819802943834413878e-01 0.000000000000000000e+00
Cu 1.356934273646836830e+00 7.244319136983892737e-02 0.000000000000000000e+00
Cu 1.356960162949174098e+00 1.620395355303541896e-01 0.000000000000000000e+00
Cu 1.357049276467936938e+00 2.516173315324679027e-01 0.000000000000000000e+00
Cu 1.357243354998997731e+00 3.411340492155509052e-01 0.000000000000000000e+00
Cu 1.357672037128892839e+00 4.305217997907099248e-01 0.000000000000000000e+00
Cu 1.358368601034878775e+00 5.196894072254336638e-01 0.000000000000000000e+00
Cu 1.360441053275647905e+00 6.081292914824796281e-01 0.000000000000000000e+00
Cu 1.362946960349074255e+00 6.972325180841063563e-01 0.000000000000000000e+00
Cu 1.365164370043939757e+00 7.876223560614207253e-01 0.000000000000000000e+00
Cu 1.367241247860513376e+00 8.783661895707387535e-01 0.000000000000000000e+00
Cu 1.493470092312302322e+00 7.250939473048953476e-02 0.000000000000000000e+00
Cu 1.493593775140393820e+00 1.619573038502041262e-01 0.000000000000000000e+00
Cu 1.493826104114131192e+00 2.513272658137176707e-01 0.000000000000000000e+00
Cu 1.494212579413961572e+00 3.405431020779079443e-01 0.000000000000000000e+00
Cu 1.494804447244451717e+00 4.295553329412522547e-01 0.000000000000000000e+00
Cu 1.495857293845924030e+00 5.182871495005857421e-01 0.000000000000000000e+00
Cu 1.497309312525791913e+00 6.070619806632895354e-01 0.000000000000000000e+00
Cu 1.498870978809234034e+00 6.963144926357558440e-01 0.000000000000000000e+00
Cu 1.500431123268044509e+00 7.860887238047805647e-01 0.000000000000000000e+00
Cu 1.501864048076560598e+00 8.762315212250169072e-01 0.000000000000000000e+00
Cu 1.630246907021797087e+00 7.253696615195624753e-02 0.000000000000000000e+00
Cu 1.630482883272572181e+00 1.618614247574940435e-01 0.000000000000000000e+00
Cu 1.630901768554562814e+00 2.510490620152789343e-01 0.000000000000000000e+00
Cu 1.631482828895017168e+00 3.400188943905768091e-01 0.000000000000000000e+00
Cu 1.632248651954163243e+00 4.287567194343953614e-01 0.000000000000000000e+00
Cu 1.633186396258789364e+00 5.173954548966115397e-01 0.000000000000000000e+00
Cu 1.634208780625267421e+00 6.061853033163513427e-01 0.000000000000000000e+00
Cu 1.635248261712990425e+00 6.953166920120581462e-01 0.000000000000000000e+00
Cu 1.636280661457424346e+00 7.848433838697275178e-01 0.000000000000000000e+00
Cu 1.637245305784108318e+00 8.746822986103014452e-01 0.000000000000000000e+00
Cu 1.767192562921495291e+00 7.253814231197874829e-02 0.000000000000000000e+00
Cu 1.767586954760237417e+00 1.617861787587748790e-01 0.000000000000000000e+00
Cu 1.768249615447122336e+00 2.508410933931187192e-01 0.000000000000000000e+00
Cu 1.769067661056382246e+00 3.396259720331628595e-01 0.000000000000000000e+00
Cu 1.769927175115676210e+00 4.281928217491077771e-01 0.000000000000000000e+00
Cu 1.770722620353162302e+00 5.167091294991322803e-01 0.000000000000000000e+00
Cu 1.771399809069129860e+00 6.053830277975755791e-01 0.000000000000000000e+00
Cu 1.771981725101277716e+00 6.943756078296343670e-01 0.000000000000000000e+00
Cu 1.772538165911746733e+00 7.837444275632530211e-01 0.000000000000000000e+00
Cu 1.773141933820421956e+00 8.734041504788836452e-01 0.000000000000000000e+00
Cu 1.904191251343516411e+00 7.246383664027647442e-02 0.000000000000000000e+00
Cu 1.904841570135134887e+00 1.617013833640993381e-01 0.000000000000000000e+00
Cu 1.905860453234800023e+00 2.506759999644913028e-01 0.000000000000000000e+00
Cu 1.906989678388477660e+00 3.393315344041619719e-01 0.000000000000000000e+00
Cu 1.907982194842223533e+00 4.277629156612653971e-01 0.000000000000000000e+00
Cu 1.908662199033091422e+00 5.161480519955147228e-01 0.000000000000000000e+00
Cu 1.908990937834442958e+00 6.046831401033978537e-01 0.000000000000000000e+00
Cu 1.909075069236400690e+00 6.935352990409714424e-01 0.000000000000000000e+00
Cu 1.909111790106428952e+00 7.827847462377806043e-01 0.000000000000000000e+00
Cu 1.909326284237911731e+00 8.723546747301543780e-01 0.000000000000000000e+00
Cu 2.041074064096587204e+00 7.217139894028905267e-02 0.000000000000000000e+00
Cu 2.042172605478260738e+00 1.614795630993569320e-01 0.000000000000000000e+00
Cu 2.043746889907562814e+00 2.504137438846383845e-01 0.000000000000000000e+00
Cu 2.045330660477346907e+00 3.389805257607466649e-01 0.000000000000000000e+00
Cu 2.046533133166221763e+00 4.273610702851790011e-01 0.000000000000000000e+00
Cu 2.047125985576322638e+00 5.157249354956791043e-01 0.000000000000000000e+00
Cu 2.047077252498477495e+00 6.041914960104584065e-01 0.000000000000000000e+00
Cu 2.046557022856891450e+00 6.929209268908211872e-01 0.000000000000000000e+00
Cu 2.045911589612917858e+00 7.820782387009437286e-01 0.000000000000000000e+00
Cu 2.045576477578494590e+00 8.716491499611125349e-01 0.000000000000000000e+00
Cu 2.177584616833868836e+00 7.137577102432626774e-02 0.000000000000000000e+00
Cu 2.179508875277030633e+00 1.608536785990773987e-01 0.000000000000000000e+00
Cu 2.181984618610252724e+00 2.497502399720001320e-01 0.000000000000000000e+00
Cu 2.184187665661886157e+00 3.382969180042005863e-01 0.000000000000000000e+00
Cu 2.185609706008058151e+00 4.268580647601263323e-01 0.000000000000000000e+00
Cu 2.186141396466163567e+00 5.155102294185095468e-01 0.000000000000000000e+00
Cu 2.185753681555696382e+00 6.041383501276319512e-01 0.000000000000000000e+00
Cu 2.184502061417176400e+00 6.928113088155597454e-01 0.000000000000000000e+00
Cu 2.182855018392883206e+00 7.818796717421342413e-01 0.000000000000000000e+00
Cu 2.181610494885022788e+00 8.715583307743512975e-01 0.000000000000000000e+00
Cu 2.313254376421979064e+00 6.952333680139829997e-02 0.000000000000000000e+00
Cu 2.316843710893622621e+00 1.592968975988290903e-01 0.000000000000000000e+00
Cu 2.320787875080492224e+00 2.481069499625615793e-01 0.000000000000000000e+00
Cu 2.323599648126132067e+00 3.369192461440904673e-01 0.000000000000000000e+00
Cu 2.325081176345785483e+00 4.261625203098279857e-01 0.000000000000000000e+00
Cu 2.325574739184558037e+00 5.155485290425776412e-01 0.000000000000000000e+00
Cu 2.325051827428996187e+00 6.048458529382815252e-01 0.000000000000000000e+00
Cu 2.323117515076259298e+00 6.937596020243429473e-01 0.000000000000000000e+00
Cu 2.319926409533367817e+00 7.827025821998294663e-01 0.000000000000000000e+00
Cu 2.316946116742360395e+00 8.726256096833601150e-01 0.000000000000000000e+00
Cu 2.446946108508591067e+00 6.528423433692084887e-02 0.000000000000000000e+00
Cu 2.454566569328227033e+00 1.555016629351082813e-01 0.000000000000000000e+00
Cu 2.460470038962243589e+00 2.446035801883238991e-01 0.000000000000000000e+00
Cu 2.463226415096356092e+00 3.348212522849349781e-01 0.000000000000000000e+00
Cu 2.464757380338420401e+00 4.252712915679015548e-01 0.000000000000000000e+00
Cu 2.465230148815353406e+00 5.157963163967312914e-01 0.000000000000000000e+00
Cu 2.464619009602567967e+00 6.063026783086494786e-01 0.000000000000000000e+00
Cu 2.462703145183419373e+00 6.966182014680810664e-01 0.000000000000000000e+00
Cu 2.457511884310030315e+00 7.858467242033305711e-01 0.000000000000000000e+00
Cu 2.450442611312075858e+00 8.761815763951765756e-01 0.000000000000000000e+00
Cu 2.574528922620649141e+00 5.202412346427791323e-02 0.000000000000000000e+00
Cu 2.594459489668268226e+00 1.464744614998705063e-01 0.000000000000000000e+00
Cu 2.599766030905734215e+00 2.400755925380987921e-01 0.000000000000000000e+00
Cu 2.602967197710267744e+00 3.324891031454291768e-01 0.000000000000000000e+00
Cu 2.604493637539347706e+00 4.243324346077791964e-01 0.000000000000000000e+00
Cu 2.604956321041835832e+00 5.160558620172114308e-01 0.000000000000000000e+00
Cu 2.604332044993550532e+00 6.079739124309900822e-01 0.000000000000000000e+00
Cu 2.601966471754387111e+00 7.005235624170603748e-01 0.000000000000000000e+00
Cu 2.597378649904840575e+00 7.942826087629863974e-01 0.000000000000000000e+00
Cu 2.578004301622310201e+00 8.889103409026691827e-01 0.000000000000000000e+00
