200

Cu 0.000000000000000000e+00 5.153376953913763048e-02 0.000000000000000000e+00
Cu 0.000000000000000000e+00 1.468696657413330331e-01 0.000000000000000000e+00
Cu 0.000000000000000000e+00 2.407370303159217240e-01 0.000000000000000000e+00
Cu 0.000000000000000000e+00 3.339424583057962193e-01 0.000000000000000000e+00
Cu 0.000000000000000000e+00 4.269171783986353552e-01 0.000000000000000000e+00
Cu 0.000000000000000000e+00 5.198830430705089212e-01 0.000000000000000000e+00
Cu 0.000000000000000000e+00 6.130205776970948373e-01 0.000000000000000000e+00
Cu 0.000000000000000000e+00 7.065292223076947709e-01 0.000000000000000000e+00
Cu 0.000000000000000000e+00 8.007945225957701085e-01 0.000000000000000000e+00
Cu 0.000000000000000000e+00 8.965485431098551006e-01 0.000000000000000000e+00
Cu 1.332750438796195813e-01 5.690886377769774351e-02 0.000000000000000000e+00
Cu 1.319007774862876736e-01 1.487283470549209119e-01 0.000000000000000000e+00
Cu 1.318624625645603288e-01 2.415154372125736804e-01 0.000000000000000000e+00
Cu 1.318035197534362379e-01 3.343161724891162701e-01 0.000000000000000000e+00
Cu 1.316984820274464119e-01 4.270466513970020417e-01 0.000000000000000000e+00
Cu 1.315319673435089987e-01 5.198095195116584355e-01 0.000000000000000000e+00
Cu 1.313176955218496866e-01 6.127125126624686224e-01 0.000000000000000000e+00
Cu 1.310926462005000404e-01 7.058371865465227213e-01 0.000000000000000000e+00
Cu 1.308964751570952101e-01 7.990725809932087698e-01 0.000000000000000000e+00
Cu 1.320522784849545994e-01 8.914576298067365956e-01 0.000000000000000000e+00
Cu 2.659139332242987930e-01 5.943100143724638212e-02 0.000000000000000000e+00
Cu 2.647845853058962695e-01 1.509948168522339262e-01 0.000000000000000000e+00
Cu 2.641745596305257182e-01 2.428662066868846336e-01 0.000000000000000000e+00
Cu 2.639276187473790225e-01 3.350865493139371099e-01 0.000000000000000000e+00
Cu 2.636576285522588825e-01 4.274063537323784523e-01 0.000000000000000000e+00
Cu 2.633151144225204798e-01 5.197969166939002683e-01 0.000000000000000000e+00
Cu 2.629339635286007670e-01 6.122866419257907422e-01 0.000000000000000000e+00
Cu 2.626072131402348853e-01 7.048289230042663611e-01 0.000000000000000000e+00
Cu 2.627202877494311806e-01 7.971719779255868055e-01 0.000000000000000000e+00
Cu 2.634342911153468858e-01 8.893427999015928176e-01 0.000000000000000000e+00
Cu 3.984529787096107167e-01 6.117784169307492054e-02 0.000000000000000000e+00
Cu 3.975487599700744945e-01 1.526972867363296793e-01 0.000000000000000000e+00
Cu 3.968805779729054906e-01 2.443200176287265990e-01 0.000000000000000000e+00
Cu 3.964302666791167384e-01 3.361070338942753755e-01 0.000000000000000000e+00
Cu 3.960076291384497238e-01 4.279877332968612946e-01 0.000000000000000000e+00
Cu 3.954769253394050388e-01 5.199035758359022985e-01 0.000000000000000000e+00
Cu 3.949129776113440848e-01 6.118988616007465797e-01 0.000000000000000000e+00
Cu 3.944963024224890646e-01 7.039506333866765164e-01 0.000000000000000000e+00
Cu 3.943763109200886241e-01 7.960365758748080278e-01 0.000000000000000000e+00
Cu 3.946098241075505220e-01 8.882129751293131870e-01 0.000000000000000000e+00
Cu 5.309912854366998225e-01 6.254752793014926870e-02 0.000000000000000000e+00
Cu 5.302676001547941276e-01 1.540460138372777843e-01 0.000000000000000000e+00
Cu 5.296877291897474915e-01 2.455925766458251225e-01 0.000000000000000000e+00
Cu 5.292291502533964520e-01 3.371979280643263022e-01 0.000000000000000000e+00
Cu 5.288021616400329084e-01 4.288074582197574647e-01 0.000000000000000000e+00
Cu 5.281226523757238667e-01 5.202526103624498521e-01 0.000000000000000000e+00
Cu 5.272431395858276915e-01 6.117000544646555849e-01 0.000000000000000000e+00
Cu 5.264774020400410093e-01 7.034408884605646284e-01 0.000000000000000000e+00
Cu 5.259055656438708093e-01 7.954842420938554870e-01 0.000000000000000000e+00
Cu 5.255728653836659880e-01 8.877616872127778169e-01 0.000000000000000000e+00
Cu 6.635712763960176508e-01 6.365439028282371403e-02 0.000000000000000000e+00
Cu 6.630048061489870470e-01 1.551266186851795181e-01 0.000000000000000000e+00
Cu 6.625469504682723887e-01 2.466444706581373270e-01 0.000000000000000000e+00
Cu 6.621978095656726460e-01 3.382101724461714087e-01 0.000000000000000000e+00
Cu 6.618601073547848435e-01 4.297598197046930135e-01 0.000000000000000000e+00
Cu 6.614711185225270462e-01 5.211490719275877481e-01 0.000000000000000000e+00
Cu 6.600433204289152256e-01 6.118544245090929978e-01 0.000000000000000000e+00
Cu 6.584079843422349088e-01 7.031298389903570811e-01 0.000000000000000000e+00
Cu 6.572399579839146577e-01 7.955171650054558841e-01 0.000000000000000000e+00
Cu 6.562135935730222247e-01 8.881634417408760251e-01 0.000000000000000000e+00
Cu 7.962334493812649461e-01 6.453454297092275915e-02 0.000000000000000000e+00
Cu 7.958050394923128490e-01 1.559611929696417820e-01 0.000000000000000000e+00
Cu 7.954695240883207230e-01 2.474490280743243398e-01 0.000000000000000000e+00
Cu 7.952269428384838301e-01 3.390143281028052402e-01 0.000000000000000000e+00
Cu 7.951001764597566135e-01 4.306543813300959256e-01 0.000000000000000000e+00
Cu 7.948173240924553129e-01 5.222646902129288726e-01 0.000000000000000000e+00
Cu 7.947791009142960439e-01 6.136584431118200511e-01 0.000000000000000000e+00
Cu 7.901119481300080682e-01 7.024276904986007652e-01 0.000000000000000000e+00
Cu 7.873257829654787265e-01 7.958408744880620667e-01 0.000000000000000000e+00
Cu 7.868128145918641403e-01 8.901167319908731557e-01 0.000000000000000000e+00
Cu 9.290251404373085498e-01 6.520566718738342316e-02 0.000000000000000000e+00
Cu 9.287190141111821839e-01 1.565583079327912686e-01 0.000000000000000000e+00
Cu 9.284804968597599739e-01 2.479819965246274072e-01 0.000000000000000000e+00
Cu 9.283447957980375254e-01 3.395105103159739568e-01 0.000000000000000000e+00
Cu 9.282784729775380717e-01 4.311853816975825815e-01 0.000000000000000000e+00
Cu 9.284697068708688272e-01 5.230842824569148508e-01 0.000000000000000000e+00
Cu 9.279202292629903370e-01 6.152738406296590634e-01 0.000000000000000000e+00
Cu 9.303802792891753271e-01 7.082182452787944005e-01 0.000000000000000000e+00
Cu 9.067550339367892454e-01 7.928641876474061823e-01 0.000000000000000000e+00
Cu 9.227760442457759726e-01 8.883884678585937111e-01 0.000000000000000000e+00
Cu 1.062000809145166036e+00 6.568910610451292320e-02 0.000000000000000000e+00
Cu 1.061799244951443733e+00 1.569350667013108547e-01 0.000000000000000000e+00
Cu 1.061650204129446662e+00 2.482440616087716323e-01 0.000000000000000000e+00
Cu 1.061576756963566348e+00 3.396441377482001256e-01 0.000000000000000000e+00
Cu 1.061656887106372515e+00 4.311774384648990321e-01 0.000000000000000000e+00
Cu 1.061721296345205623e+00 5.229273209602507411e-01 0.000000000000000000e+00
Cu 1.062763390674026143e+00 6.149656546055903839e-01 0.000000000000000000e+00
Cu 1.060970284933771435e+00 7.077921972844209986e-01 0.000000000000000000e+00
Cu 1.085331398737878539e+00 7.920866515819317000e-01 0.000000000000000000e+00
Cu 1.070215941703744900e+00 8.876343921006577542e-01 0.000000000000000000e+00
Cu 1.195210805152228550e+00 6.601643662983455729e-02 0.000000000000000000e+00
Cu 1.195103109905505834e+00 1.571260439301636336e-01 0.000000000000000000e+00
Cu 1.195039034902879660e+00 2.482682553937357040e-01 0.000000000000000000e+00
Cu 1.195072682639573669e+00 3.394395513192760561e-01 0.000000000000000000e+00
Cu 1.195218145478938565e+00 4.306378953221635109e-01 0.000000000000000000e+00
Cu 1.195766396311889856e+00 5.217807019047887573e-01 0.000000000000000000e+00
Cu 1.196288035123815208e+00 6.127171450977847433e-01 0.000000000000000000e+00
Cu 1.201629850717722325e+00 7.010254959690908061e-01 0.000000000000000000e+00
Cu 1.205232555687935525e+00 7.940058768545743551e-01 0.000000000000000000e+00
Cu 1.206697983549119169e+00 8.878866996776312304e-01 0.000000000000000000e+00
Cu 1.328692578359248477e+00 6.622958257049668673e-02 0.000000000000000000e+00
Cu 1.328670687721758448e+00 1.571842551533572940e-01 0.000000000000000000e+00
Cu 1.328716505579592422e+00 2.481219071278338573e-01 0.000000000000000000e+00
Cu 1.328872018814932998e+00 3.390011103398672954e-01 0.000000000000000000e+00
Cu 1.329253993085610208e+00 4.297586900016222011e-01 0.000000000000000000e+00
Cu 1.329916542523551071e+00 5.203033834893503462e-01 0.000000000000000000e+00
Cu 1.331840214915167797e+00 6.101818530149570874e-01 0.000000000000000000e+00
Cu 1.334174241971689767e+00 7.006971128692146555e-01 0.000000000000000000e+00
Cu 1.336225590266868712e+00 7.924046386161276434e-01 0.000000000000000000e+00
Cu 1.338230511136573320e+00 8.844158095505295636e-01 0.000000000000000000e+00
Cu 1.462455566864347967e+00 6.637558385871362987e-02 0.000000000000000000e+00
Cu 1.462523055097955327e+00 1.571749258608538535e-01 0.000000000000000000e+00
Cu 1.462703076259336044e+00 2.478998593790955884e-01 0.000000000000000000e+00
Cu 1.463037932788290529e+00 3.384770512144009702e-01 0.000000000000000000e+00
Cu 1.463581155593866034e+00 4.288585266904150761e-01 0.000000000000000000e+00
Cu 1.464562846716443323e+00 5.189790048053203320e-01 0.000000000000000000e+00
Cu 1.465919840351173065e+00 6.091495147841355928e-01 0.000000000000000000e+00
Cu 1.467376922280652529e+00 6.997711340431665983e-01 0.000000000000000000e+00
Cu 1.468859323865019162e+00 7.908684140413464458e-01 0.000000000000000000e+00
Cu 1.470274520966519116e+00 8.822967576596928430e-01 0.000000000000000000e+00
Cu 1.596473785300255521e+00 6.649307020693481785e-02 0.000000000000000000e+00
Cu 1.596647194852011564e+00 1.571599978395742392e-01 0.000000000000000000e+00
Cu 1.597004445362179004e+00 2.476942419954288599e-01 0.000000000000000000e+00
Cu 1.597526569781599903e+00 3.380169111537690285e-01 0.000000000000000000e+00
Cu 1.598232729609608382e+00 4.281167695559085495e-01 0.000000000000000000e+00
Cu 1.599106855782173930e+00 5.181249417037739891e-01 0.000000000000000000e+00
Cu 1.600064068660038252e+00 6.082797901669533269e-01 0.000000000000000000e+00
Cu 1.601049151561080519e+00 6.987555055786185410e-01 0.000000000000000000e+00
Cu 1.602053944241342176e+00 7.895976950919614268e-01 0.000000000000000000e+00
Cu 1.603032433835948511e+00 8.807321091771704857e-01 0.000000000000000000e+00
Cu 1.730678365723013146e+00 6.659063389004145350e-02 0.000000000000000000e+00
Cu 1.731004939107615881e+00 1.571699737270870201e-01 0.000000000000000000e+00
Cu 1.731598211348835292e+00 2.475590912158175394e-01 0.000000000000000000e+00
Cu 1.732349408917873035e+00 3.376834319362984616e-01 0.000000000000000000e+00
Cu 1.733147432275643496e+00 4.275947935061417127e-01 0.000000000000000000e+00
Cu 1.733889444729471041e+00 5.174566749499291962e-01 0.000000000000000000e+00
Cu 1.734526304217147263e+00 6.074694023816346045e-01 0.000000000000000000e+00
Cu 1.735087634071846407e+00 6.977860234582302645e-01 0.000000000000000000e+00
Cu 1.735648748920147977e+00 7.884615783311504922e-01 0.000000000000000000e+00
Cu 1.736285893544470937e+00 8.794170460420943636e-01 0.000000000000000000e+00
Cu 1.864957266404250413e+00 6.661809024821380154e-02 0.000000000000000000e+00
Cu 1.865535137818424394e+00 1.571730796526547014e-01 0.000000000000000000e+00
Cu 1.866476143426820888e+00 2.474659227950317120e-01 0.000000000000000000e+00
Cu 1.867532100794423000e+00 3.374426836049346790e-01 0.000000000000000000e+00
Cu 1.868463529185435679e+00 4.271966226148479207e-01 0.000000000000000000e+00
Cu 1.869100096297018565e+00 5.169023068911166030e-01 0.000000000000000000e+00
Cu 1.869407778402506271e+00 6.067520489175319831e-01 0.000000000000000000e+00
Cu 1.869496184047805043e+00 6.969094585317587853e-01 0.000000000000000000e+00
Cu 1.869561365616315252e+00 7.874539210667254041e-01 0.000000000000000000e+00
Cu 1.869823478677928419e+00 8.783140425622472103e-01 0.000000000000000000e+00
Cu 1.999147335388472779e+00 6.643475394228297304e-02 0.000000000000000000e+00
Cu 2.000167456397186516e+00 1.570426468324490621e-01 0.000000000000000000e+00
Cu 2.001652272648518860e+00 2.472747774897191553e-01 0.000000000000000000e+00
Cu 2.003154711000708854e+00 3.371409768459959766e-01 0.000000000000000000e+00
Cu 2.004295770768806939e+00 4.268199296029581702e-01 0.000000000000000000e+00
Cu 2.004853309069122069e+00 5.164789823030500049e-01 0.000000000000000000e+00
Cu 2.004799318540084752e+00 6.062365752769908189e-01 0.000000000000000000e+00
Cu 2.004304900908193243e+00 6.962515475459508663e-01 0.000000000000000000e+00
Cu 2.003710141786672949e+00 7.866881472179383383e-01 0.000000000000000000e+00
Cu 2.003435383807431247e+00 8.775380537788061153e-01 0.000000000000000000e+00
Cu 2.133002639300468406e+00 6.576190093816249027e-02 0.000000000000000000e+00
Cu 2.134837269995609077e+00 1.565148359638322273e-01 0.000000000000000000e+00
Cu 2.137202368586937240e+00 2.466839453410922256e-01 0.000000000000000000e+00
Cu 2.139308912142698915e+00 3.365057257723335638e-01 0.000000000000000000e+00
Cu 2.140666701557172757e+00 4.263391571670447910e-01 0.000000000000000000e+00
Cu 2.141169039666362295e+00 5.162585684647685857e-01 0.000000000000000000e+00
Cu 2.140790172664918778e+00 6.061529383843408114e-01 0.000000000000000000e+00
Cu 2.139589279340676775e+00 6.960898891007120115e-01 0.000000000000000000e+00
Cu 2.138021729508945867e+00 7.864164401730221465e-01 0.000000000000000000e+00
Cu 2.136853808378678998e+00 8.773547898128023492e-01 0.000000000000000000e+00
Cu 2.266078618544602907e+00 6.406009186144082101e-02 0.000000000000000000e+00
Cu 2.269549236474546650e+00 1.550687690792641460e-01 0.000000000000000000e+00
Cu 2.273334460793263290e+00 2.451243764670378578e-01 0.000000000000000000e+00
Cu 2.276021014878269799e+00 3.351865331174589402e-01 0.000000000000000000e+00
Cu 2.277438101404004378e+00 4.256659459004751844e-01 0.000000000000000000e+00
Cu 2.277906171563265136e+00 5.162862562620706974e-01 0.000000000000000000e+00
Cu 2.277399820163039212e+00 6.068148693296817608e-01 0.000000000000000000e+00
Cu 2.275551392587447541e+00 6.969694682136491348e-01 0.000000000000000000e+00
Cu 2.272493486650729810e+00 7.871469978027879622e-01 0.000000000000000000e+00
Cu 2.269622783845962832e+00 8.782942636312758289e-01 0.000000000000000000e+00
Cu 2.397311353525115596e+00 6.003190545021917790e-02 0.000000000000000000e+00
Cu 2.404703213212166624e+00 1.514162741551546842e-01 0.000000000000000000e+00
Cu 2.410313126080056101e+00 2.417582693573668562e-01 0.000000000000000000e+00
Cu 2.412955981929327809e+00 3.331609852516017600e-01 0.000000000000000000e+00
Cu 2.414407542383201655e+00 4.248022186043223236e-01 0.000000000000000000e+00
Cu 2.414856988292580553e+00 5.165170977491814197e-01 0.000000000000000000e+00
Cu 2.414281274634519026e+00 6.082096592899658427e-01 0.000000000000000000e+00
Cu 2.412443351037006245e+00 6.997020333413510595e-01 0.000000000000000000e+00
Cu 2.407522739405684398e+00 7.901601143751445511e-01 0.000000000000000000e+00
Cu 2.400676205204763658e+00 8.816543517533994567e-01 0.000000000000000000e+00
Cu 2.523000652906627561e+00 4.729068092482009711e-02 0.000000000000000000e+00
Cu 2.541811157724337633e+00 1.427534933544152007e-01 0.000000000000000000e+00
Cu 2.546947369380888837e+00 2.373819100447830122e-01 0.000000000000000000e+00
Cu 2.549975647429040038e+00 3.309056834237597000e-01 0.000000000000000000e+00
Cu 2.551429447799892447e+00 4.238915515306618809e-01 0.000000000000000000e+00
Cu 2.551869572787312634e+00 5.167619361482388429e-01 0.000000000000000000e+00
Cu 2.551275509817600540e+00 6.098161703751271423e-01 0.000000000000000000e+00
Cu 2.549047640437487772e+00 7.034644999717641900e-01 0.000000000000000000e+00
Cu 2.544607936844621499e+00 7.982389313798123887e-01 0.000000000000000000e+00
Cu 2.526347984419192283e+00 8.938662544330134851e-01 0.000000000000000000e+00
