200

Cu 0.000000000000000000e+00 1.083714166008915500e-02 0.000000000000000000e+00
Cu 0.000000000000000000e+00 1.158209244903223856e-01 0.000000000000000000e+00
Cu 0.000000000000000000e+00 2.208493726388700840e-01 0.000000000000000000e+00
Cu 0.000000000000000000e+00 3.259498403721880488e-01 0.000000000000000000e+00
Cu 0.000000000000000000e+00 4.311295263434451464e-01 0.000000000000000000e+00
Cu 0.000000000000000000e+00 5.363852896063232567e-01 0.000000000000000000e+00
Cu 0.000000000000000000e+00 6.417119932788213355e-01 0.000000000000000000e+00
Cu 0.000000000000000000e+00 7.471051771329425550e-01 0.000000000000000000e+00
Cu 0.000000000000000000e+00 8.525577914186177608e-01 0.000000000000000000e+00
Cu 0.000000000000000000e+00 9.580531695941423287e-01 0.000000000000000000e+00
Cu 1.062930897740929498e-01 1.114893517669486404e-02 0.000000000000000000e+00
Cu 1.060165658891945306e-01 1.159789652162523804e-01 0.000000000000000000e+00
Cu 1.058115481609621517e-01 2.209705318617653791e-01 0.000000000000000000e+00
Cu 1.056156939134888645e-01 3.260662852687408186e-01 0.000000000000000000e+00
Cu 1.054252639734355873e-01 4.312500556474540003e-01 0.000000000000000000e+00
Cu 1.052384078302027320e-01 5.365128165899063495e-01 0.000000000000000000e+00
Cu 1.050520521151671466e-01 6.418470895960174394e-01 0.000000000000000000e+00
Cu 1.048607387559585963e-01 7.472499684788357355e-01 0.000000000000000000e+00
Cu 1.046546017188624694e-01 8.527333169404999191e-01 0.000000000000000000e+00
Cu 1.043691953922961796e-01 9.583586059556408188e-01 0.000000000000000000e+00
Cu 2.125495814242823189e-01 1.155324599380638459e-02 0.000000000000000000e+00
Cu 2.120707714505503938e-01 1.163925520150396048e-01 0.000000000000000000e+00
Cu 2.116289728622703370e-01 2.213557215214518037e-01 0.000000000000000000e+00
Cu 2.112234843902702497e-01 3.264451203945508695e-01 0.000000000000000000e+00
Cu 2.108371828920674318e-01 4.316368192566407136e-01 0.000000000000000000e+00
Cu 2.104633645527910490e-01 5.369142123014538637e-01 0.000000000000000000e+00
Cu 2.100933876733926120e-01 6.422658715263038776e-01 0.000000000000000000e+00
Cu 2.097115736402727637e-01 7.476890653299375078e-01 0.000000000000000000e+00
Cu 2.092861591990105019e-01 8.531983660355850763e-01 0.000000000000000000e+00
Cu 2.087960542544264053e-01 9.588005548095349662e-01 0.000000000000000000e+00
Cu 3.187717780672273404e-01 1.215423844481348936e-02 0.000000000000000000e+00
Cu 3.180890421098857557e-01 1.170073426316437654e-01 0.000000000000000000e+00
Cu 3.174322710687478288e-01 2.219809186488154729e-01 0.000000000000000000e+00
Cu 3.168110137328665199e-01 3.270746230407980959e-01 0.000000000000000000e+00
Cu 3.162245493379240990e-01 4.322784678313258966e-01 0.000000000000000000e+00
Cu 3.156650940278815654e-01 5.375745721946364464e-01 0.000000000000000000e+00
Cu 3.151200070512031326e-01 6.429473515194097377e-01 0.000000000000000000e+00
Cu 3.145651435986562272e-01 7.483867368193528602e-01 0.000000000000000000e+00
Cu 3.139698806562914446e-01 8.538869469516675581e-01 0.000000000000000000e+00
Cu 3.133051167736107256e-01 9.594534746654946877e-01 0.000000000000000000e+00
Cu 4.249550503152564884e-01 1.295921542515315709e-02 0.000000000000000000e+00
Cu 4.240617645875310870e-01 1.178301754406490681e-01 0.000000000000000000e+00
Cu 4.231919802779808837e-01 2.228231607594947650e-01 0.000000000000000000e+00
Cu 4.223609554983125958e-01 3.279354162151217333e-01 0.000000000000000000e+00
Cu 4.215764040915787048e-01 4.331557062861999818e-01 0.000000000000000000e+00
Cu 4.208378142839128699e-01 5.384678976167460718e-01 0.000000000000000000e+00
Cu 4.201348810999662731e-01 6.438536232522715785e-01 0.000000000000000000e+00
Cu 4.194439992939401063e-01 7.492939992686555861e-01 0.000000000000000000e+00
Cu 4.187257525032680450e-01 8.547727122793746801e-01 0.000000000000000000e+00
Cu 4.179308225073872229e-01 9.602880046342054943e-01 0.000000000000000000e+00
Cu 5.310965859318740323e-01 1.397239231020666952e-02 0.000000000000000000e+00
Cu 5.299832137335154236e-01 1.188601352730824373e-01 0.000000000000000000e+00
Cu 5.288946347084807487e-01 2.238743405781471185e-01 0.000000000000000000e+00
Cu 5.278567185600926415e-01 3.290088068048979686e-01 0.000000000000000000e+00
Cu 5.268846123706226736e-01 4.342455678731261259e-01 0.000000000000000000e+00
Cu 5.259827916822578109e-01 5.395614113475428741e-01 0.000000000000000000e+00
Cu 5.251474255261636692e-01 6.449373510054673408e-01 0.000000000000000000e+00
Cu 5.243585877161729414e-01 7.503558429209670200e-01 0.000000000000000000e+00
Cu 5.235706601654549486e-01 8.557996739560611577e-01 0.000000000000000000e+00
Cu 5.227108299226189692e-01 9.612502457586634685e-01 0.000000000000000000e+00
Cu 6.371998644065183237e-01 1.520232614335468961e-02 0.000000000000000000e+00
Cu 6.358513920716075685e-01 1.201009975581964345e-01 0.000000000000000000e+00
Cu 6.345318561726654982e-01 2.251290780625560539e-01 0.000000000000000000e+00
Cu 6.332872252176997563e-01 3.302803100960657323e-01 0.000000000000000000e+00
Cu 6.321441646287884186e-01 4.355245085195460497e-01 0.000000000000000000e+00
Cu 6.311117730899713507e-01 5.408239031336629088e-01 0.000000000000000000e+00
Cu 6.301784168418685939e-01 6.461470943343079476e-01 0.000000000000000000e+00
Cu 6.293252295258662254e-01 7.515006975089617569e-01 0.000000000000000000e+00
Cu 6.285145766689979041e-01 8.568795371992514731e-01 0.000000000000000000e+00
Cu 6.276774232434493284e-01 9.622577633119466789e-01 0.000000000000000000e+00
Cu 7.432699964432128992e-01 1.666798935448834951e-02 0.000000000000000000e+00
Cu 7.416709828790588599e-01 1.215689694341632043e-01 0.000000000000000000e+00
Cu 7.401031197729757150e-01 2.265913502389041434e-01 0.000000000000000000e+00
Cu 7.386428104228199842e-01 3.317361995136197672e-01 0.000000000000000000e+00
Cu 7.373531883741895054e-01 4.369697142477458884e-01 0.000000000000000000e+00
Cu 7.362426630718884590e-01 5.422152404735394171e-01 0.000000000000000000e+00
Cu 7.352801878171253414e-01 6.474402950076872942e-01 0.000000000000000000e+00
Cu 7.343756996579191565e-01 7.526465929889010198e-01 0.000000000000000000e+00
Cu 7.335717855771557439e-01 8.579126296471327739e-01 0.000000000000000000e+00
Cu 7.328525522153802596e-01 9.631436500273290457e-01 0.000000000000000000e+00
Cu 8.493036042960973031e-01 1.838851744152354001e-02 0.000000000000000000e+00
Cu 8.474467916869286022e-01 1.232956930338110907e-01 0.000000000000000000e+00
Cu 8.456239368022212544e-01 2.282911025853197051e-01 0.000000000000000000e+00
Cu 8.439260989884577180e-01 3.333762113472816258e-01 0.000000000000000000e+00
Cu 8.425001947605950114e-01 4.385411055898055244e-01 0.000000000000000000e+00
Cu 8.414296765943465317e-01 5.436803166719388347e-01 0.000000000000000000e+00
Cu 8.404934477235536106e-01 6.487158461746485028e-01 0.000000000000000000e+00
Cu 8.395635199725866027e-01 7.538571172054837621e-01 0.000000000000000000e+00
Cu 3.457641798234825981e+00 6.822012342911665250e-01 0.000000000000000000e+00
Cu 3.434959751876606404e+00 7.844402467421234260e-01 0.000000000000000000e+00
Cu 9.552906951843802563e-01 2.038985143772598096e-02 0.000000000000000000e+00
Cu 9.531577612805910427e-01 1.253027108782224230e-01 0.000000000000000000e+00
Cu 9.511086590262024520e-01 2.303028469710244330e-01 0.000000000000000000e+00
Cu 9.491846423769833008e-01 3.352674129506853506e-01 0.000000000000000000e+00
Cu 9.476031626970372601e-01 4.401995656828563419e-01 0.000000000000000000e+00
Cu 9.468018938054715283e-01 5.449519936051122615e-01 0.000000000000000000e+00
Cu 9.458284511870397315e-01 6.499777127226752382e-01 0.000000000000000000e+00
Cu 3.589857931195853169e+00 6.051617772000820183e-01 0.000000000000000000e+00
Cu 3.565429690472472046e+00 7.056087578556863305e-01 0.000000000000000000e+00
Cu 3.545202500585386662e+00 8.048293075685312159e-01 0.000000000000000000e+00
Cu 1.061201664550418089e+00 2.268664176655126735e-02 0.000000000000000000e+00
Cu 1.058786710365470451e+00 1.276394576281046633e-01 0.000000000000000000e+00
Cu 1.056459274260607595e+00 2.326220035217000381e-01 0.000000000000000000e+00
Cu 1.054441446757383494e+00 3.376979917606701687e-01 0.000000000000000000e+00
Cu 3.778452615940862014e+00 3.288459886140459032e-01 0.000000000000000000e+00
Cu 3.744079256863952043e+00 4.272771497774157656e-01 0.000000000000000000e+00
Cu 3.724833955607616431e+00 5.292889857480069793e-01 0.000000000000000000e+00
Cu 3.699631186532299054e+00 6.282446113309776425e-01 0.000000000000000000e+00
Cu 3.679089783891356102e+00 7.261631359918608863e-01 0.000000000000000000e+00
Cu 3.661934241174317872e+00 8.230753950897601312e-01 0.000000000000000000e+00
Cu 1.167019555743999959e+00 2.534664895086366845e-02 0.000000000000000000e+00
Cu 1.164244627971294799e+00 1.303095469302056053e-01 0.000000000000000000e+00
Cu 1.161725610081338456e+00 2.354106209212977474e-01 0.000000000000000000e+00
Cu 3.914714728967175539e+00 2.580818371365781738e-01 0.000000000000000000e+00
Cu 3.884058635960257799e+00 3.571358570149676948e-01 0.000000000000000000e+00
Cu 3.862011352946622011e+00 4.549723953689411848e-01 0.000000000000000000e+00
Cu 3.835892651787536245e+00 5.505730139191937766e-01 0.000000000000000000e+00
Cu 3.815975002359806911e+00 6.479398861471816762e-01 0.000000000000000000e+00
Cu 3.798401562942132159e+00 7.435348771412501057e-01 0.000000000000000000e+00
Cu 3.784155353245472142e+00 8.383027600148239555e-01 0.000000000000000000e+00
Cu 1.272662701788022765e+00 2.836366989551559678e-02 0.000000000000000000e+00
Cu 1.269568346999323305e+00 1.334671838787732379e-01 0.000000000000000000e+00
Cu 4.054297352468434035e+00 1.891849482646113800e-01 0.000000000000000000e+00
Cu 4.023603000259479145e+00 2.863018861255132164e-01 0.000000000000000000e+00
Cu 3.998652177088922066e+00 3.818168370679235757e-01 0.000000000000000000e+00
Cu 3.976458676498611844e+00 4.768580314557125943e-01 0.000000000000000000e+00
Cu 3.955910440930548333e+00 5.712652516750239551e-01 0.000000000000000000e+00
Cu 3.937812915062787411e+00 6.645051219556514788e-01 0.000000000000000000e+00
Cu 3.922985258596955127e+00 7.578606626670373325e-01 0.000000000000000000e+00
Cu 3.911054594309803178e+00 8.506424447898937036e-01 0.000000000000000000e+00
Cu 1.378151298397828795e+00 3.200737409203703587e-02 0.000000000000000000e+00
Cu 4.193960395468618430e+00 1.217089507677390769e-01 0.000000000000000000e+00
Cu 4.164919500756076864e+00 2.178343872420235583e-01 0.000000000000000000e+00
Cu 4.140468734804344741e+00 3.116549602816008901e-01 0.000000000000000000e+00
Cu 4.118808140825572117e+00 4.040235728775676827e-01 0.000000000000000000e+00
Cu 4.099151245637602692e+00 4.958955545375595131e-01 0.000000000000000000e+00
Cu 4.081292349605453396e+00 5.873826431094155698e-01 0.000000000000000000e+00
Cu 4.065472467144630286e+00 6.785293963496928926e-01 0.000000000000000000e+00
Cu 4.052203952820759625e+00 7.695292261509831810e-01 0.000000000000000000e+00
Cu 4.042056441382224641e+00 8.604964991789785245e-01 0.000000000000000000e+00
Cu 4.330253833211129333e+00 5.312690581415504404e-02 0.000000000000000000e+00
Cu 4.305961057707080819e+00 1.493282161969520794e-01 0.000000000000000000e+00
Cu 4.284076544074409298e+00 2.421020859252141777e-01 0.000000000000000000e+00
Cu 4.264190096925942086e+00 3.328779450758508340e-01 0.000000000000000000e+00
Cu 4.245716708256359162e+00 4.225970094410401168e-01 0.000000000000000000e+00
Cu 4.228346596044529448e+00 5.117845633369765279e-01 0.000000000000000000e+00
Cu 4.212233642244701315e+00 6.008027950670963291e-01 0.000000000000000000e+00
Cu 4.197794351737429430e+00 6.898460029353493672e-01 0.000000000000000000e+00
Cu 4.185674482679279329e+00 7.790389165216707879e-01 0.000000000000000000e+00
Cu 4.176622749380600297e+00 8.683698666401055144e-01 0.000000000000000000e+00
Cu 4.443209105542367254e+00 7.597187756474378661e-02 0.000000000000000000e+00
Cu 4.426819823837042200e+00 1.702660941615198043e-01 0.000000000000000000e+00
Cu 4.410515047003313427e+00 2.610662093655470861e-01 0.000000000000000000e+00
Cu 4.394558749012065668e+00 3.498128612557113160e-01 0.000000000000000000e+00
Cu 4.378773630170398334e+00 4.375466194912069895e-01 0.000000000000000000e+00
Cu 4.363210474918950865e+00 5.248511710567931310e-01 0.000000000000000000e+00
Cu 4.348227101408883577e+00 6.120098616127714886e-01 0.000000000000000000e+00
Cu 4.334466602725206563e+00 6.992754081890255602e-01 0.000000000000000000e+00
Cu 4.322806658266253876e+00 7.868852468555320723e-01 0.000000000000000000e+00
Cu 4.314280647035926286e+00 8.748654795382951876e-01 0.000000000000000000e+00
Cu 4.565616058142725642e+00 9.407700832535399738e-02 0.000000000000000000e+00
Cu 4.554905556146231937e+00 1.860238279713991305e-01 0.000000000000000000e+00
Cu 4.543528304346494018e+00 2.752557148426673650e-01 0.000000000000000000e+00
Cu 4.530999139531931341e+00 3.626558029882184231e-01 0.000000000000000000e+00
Cu 4.517344155673000294e+00 4.493164076206623281e-01 0.000000000000000000e+00
Cu 4.503101282693246610e+00 5.356846706200503183e-01 0.000000000000000000e+00
Cu 4.488842003121512825e+00 6.217379871703331284e-01 0.000000000000000000e+00
Cu 4.475184541127696036e+00 7.076277208299849297e-01 0.000000000000000000e+00
Cu 4.463215305848313719e+00 7.938514463467747362e-01 0.000000000000000000e+00
Cu 4.454453472441599615e+00 8.807163311857688637e-01 0.000000000000000000e+00
Cu 4.695404429646528932e+00 1.076556580152583931e-01 0.000000000000000000e+00
Cu 4.689891335656756866e+00 1.975110442006930145e-01 0.000000000000000000e+00
Cu 4.682980384880300662e+00 2.851516340831819485e-01 0.000000000000000000e+00
Cu 4.673092253703614141e+00 3.719310720804528403e-01 0.000000000000000000e+00
Cu 4.660761605400638885e+00 4.586150522034266874e-01 0.000000000000000000e+00
Cu 4.647395123955726959e+00 5.450108569951268578e-01 0.000000000000000000e+00
Cu 4.633751159028875577e+00 6.309502433564782020e-01 0.000000000000000000e+00
Cu 4.619861391070108958e+00 7.160326021657565931e-01 0.000000000000000000e+00
Cu 4.606605306626750718e+00 8.009609302095079819e-01 0.000000000000000000e+00
Cu 4.596357259881968638e+00 8.869775110436879384e-01 0.000000000000000000e+00
Cu 4.830286588618101895e+00 1.152907649996724182e-01 0.000000000000000000e+00
Cu 4.831877158158643049e+00 2.037053781298230615e-01 0.000000000000000000e+00
Cu 4.829173170344603250e+00 2.906420984640454841e-01 0.000000000000000000e+00
Cu 4.820025352385004958e+00 3.786655850571228332e-01 0.000000000000000000e+00
Cu 4.808484357657539121e+00 4.664174210253671515e-01 0.000000000000000000e+00
Cu 4.795637712114658946e+00 5.536170843162017130e-01 0.000000000000000000e+00
Cu 4.782240563895846286e+00 6.401953962638367024e-01 0.000000000000000000e+00
Cu 4.768881196387960486e+00 7.261496028389324842e-01 0.000000000000000000e+00
Cu 4.753057763890640608e+00 8.100118119877993683e-01 0.000000000000000000e+00
Cu 4.738302729842726713e+00 8.954817213511685470e-01 0.000000000000000000e+00
Cu 4.963710824274773614e+00 1.079014875654265709e-01 0.000000000000000000e+00
Cu 4.983892428901672389e+00 2.009820138621660479e-01 0.000000000000000000e+00
Cu 4.979741217739968029e+00 2.937107605751687611e-01 0.000000000000000000e+00
Cu 4.971465220497329973e+00 3.846354323525290608e-01 0.000000000000000000e+00
Cu 4.960108797004615155e+00 4.739341842819101980e-01 0.000000000000000000e+00
Cu 4.947496305544070161e+00 5.621144063782120837e-01 0.000000000000000000e+00
Cu 4.934376989715976158e+00 6.496147575165387433e-01 0.000000000000000000e+00
Cu 4.920298141949827730e+00 7.370946873751825779e-01 0.000000000000000000e+00
Cu 4.905985750141899970e+00 8.258637603322063203e-01 0.000000000000000000e+00
Cu 4.873062197943302642e+00 9.138908321889148700e-01 0.000000000000000000e+00
