200

Cu 0.000000000000000000e+00 1.976618190014915125e-03 0.000000000000000000e+00
Cu 0.000000000000000000e+00 1.068169790952490511e-01 0.000000000000000000e+00
Cu 0.000000000000000000e+00 2.116131234190409272e-01 0.000000000000000000e+00
Cu 0.000000000000000000e+00 3.163984443362979349e-01 0.000000000000000000e+00
Cu 0.000000000000000000e+00 4.211868537480907282e-01 0.000000000000000000e+00
Cu 0.000000000000000000e+00 5.259809426242550989e-01 0.000000000000000000e+00
Cu 0.000000000000000000e+00 6.307807851500807361e-01 0.000000000000000000e+00
Cu 0.000000000000000000e+00 7.355877365230221177e-01 0.000000000000000000e+00
Cu 0.000000000000000000e+00 8.404128009015712220e-01 0.000000000000000000e+00
Cu 0.000000000000000000e+00 9.452843746558722282e-01 0.000000000000000000e+00
Cu 1.066420852442199751e-01 2.302128894536536064e-03 0.000000000000000000e+00
Cu 1.065108964246462286e-01 1.069324292798689430e-01 0.000000000000000000e+00
Cu 1.064804827153186667e-01 2.116646036072064585e-01 0.000000000000000000e+00
Cu 1.064604839122937907e-01 3.164239388136326769e-01 0.000000000000000000e+00
Cu 1.064445833047427264e-01 4.211951747100610155e-01 0.000000000000000000e+00
Cu 1.064324645466121488e-01 5.259746427403271252e-01 0.000000000000000000e+00
Cu 1.064246449664844468e-01 6.307585277497752552e-01 0.000000000000000000e+00
Cu 1.064225018135521034e-01 7.355415715020066081e-01 0.000000000000000000e+00
Cu 1.064328901759375445e-01 8.403073978260172661e-01 0.000000000000000000e+00
Cu 1.065406897789110269e-01 9.449844415758824612e-01 0.000000000000000000e+00
Cu 2.132582343499384026e-01 2.491461781366806696e-03 0.000000000000000000e+00
Cu 2.131103313882090899e-01 1.071103392438808172e-01 0.000000000000000000e+00
Cu 2.130151633527665733e-01 2.117742859894067853e-01 0.000000000000000000e+00
Cu 2.129621961991941537e-01 3.164867372393002642e-01 0.000000000000000000e+00
Cu 2.129247756767620736e-01 4.212224196994495684e-01 0.000000000000000000e+00
Cu 2.128989872194357591e-01 5.259699840970873952e-01 0.000000000000000000e+00
Cu 2.128871749764960353e-01 6.307205221675469264e-01 0.000000000000000000e+00
Cu 2.128952117488555063e-01 7.354589668559806670e-01 0.000000000000000000e+00
Cu 2.129472773859281132e-01 8.401596363844574533e-01 0.000000000000000000e+00
Cu 2.130530273890234583e-01 9.448266254884695181e-01 0.000000000000000000e+00
Cu 3.198991012464239558e-01 2.686369502782705310e-03 0.000000000000000000e+00
Cu 3.197367694462499577e-01 1.072831541192747623e-01 0.000000000000000000e+00
Cu 3.196141271531931505e-01 2.119168666871845963e-01 0.000000000000000000e+00
Cu 3.195288754869246017e-01 3.165830298057776271e-01 0.000000000000000000e+00
Cu 3.194684665956650793e-01 4.212706094574421578e-01 0.000000000000000000e+00
Cu 3.194258936507647917e-01 5.259691998545628078e-01 0.000000000000000000e+00
Cu 3.194094344412383712e-01 6.306720873539461980e-01 0.000000000000000000e+00
Cu 3.194291784676622226e-01 7.353644455156010951e-01 0.000000000000000000e+00
Cu 3.194867925132689468e-01 8.400343001881168670e-01 0.000000000000000000e+00
Cu 3.195824018302937386e-01 9.446816911420058416e-01 0.000000000000000000e+00
Cu 4.265952080597741891e-01 2.902673500163903495e-03 0.000000000000000000e+00
Cu 4.264127553454304387e-01 1.074683972709328250e-01 0.000000000000000000e+00
Cu 4.262721186105579152e-01 2.120712083742155030e-01 0.000000000000000000e+00
Cu 4.261707428557661159e-01 3.167016200897035394e-01 0.000000000000000000e+00
Cu 4.260995008981902643e-01 4.213445031860359458e-01 0.000000000000000000e+00
Cu 4.260407525415906282e-01 5.259807704147424490e-01 0.000000000000000000e+00
Cu 4.260051344232487214e-01 6.306211851099808863e-01 0.000000000000000000e+00
Cu 4.260186758164867804e-01 7.352735791451692204e-01 0.000000000000000000e+00
Cu 4.260728072589617943e-01 8.399208131431894486e-01 0.000000000000000000e+00
Cu 4.261534629648176531e-01 9.445441016493755226e-01 0.000000000000000000e+00
Cu 5.333706054681744968e-01 3.149406179857855599e-03 0.000000000000000000e+00
Cu 5.331626334194983219e-01 1.076720897161941581e-01 0.000000000000000000e+00
Cu 5.330032680004753720e-01 2.122358566406434000e-01 0.000000000000000000e+00
Cu 5.328919583733856546e-01 3.168299825065470920e-01 0.000000000000000000e+00
Cu 5.328229856969605160e-01 4.214382207565861016e-01 0.000000000000000000e+00
Cu 5.327794863804947711e-01 5.260335558516330279e-01 0.000000000000000000e+00
Cu 5.327053153987583167e-01 6.305764407377572045e-01 0.000000000000000000e+00
Cu 5.326621259413429899e-01 7.351690713699033930e-01 0.000000000000000000e+00
Cu 5.327113194069444946e-01 8.398187628469016008e-01 0.000000000000000000e+00
Cu 5.327885684149608059e-01 9.444385542112433418e-01 0.000000000000000000e+00
Cu 6.402499798976694079e-01 3.432391214704076914e-03 0.000000000000000000e+00
Cu 6.400106619082494008e-01 1.078993028796571552e-01 0.000000000000000000e+00
Cu 6.398277209193390380e-01 2.124116895307031072e-01 0.000000000000000000e+00
Cu 6.397032011035744814e-01 3.169598035351927079e-01 0.000000000000000000e+00
Cu 6.396374860572733301e-01 4.215317563420162839e-01 0.000000000000000000e+00
Cu 6.396200428413357786e-01 5.261084913735101232e-01 0.000000000000000000e+00
Cu 6.396247312703354782e-01 6.306473720791843096e-01 0.000000000000000000e+00
Cu 6.393974591429135712e-01 7.349948139077735476e-01 0.000000000000000000e+00
Cu 6.392883527673729471e-01 8.397041570314444092e-01 0.000000000000000000e+00
Cu 6.395712851013327649e-01 9.443780995179884563e-01 0.000000000000000000e+00
Cu 7.472587226577106501e-01 3.758407802366105048e-03 0.000000000000000000e+00
Cu 7.469820024260498403e-01 1.081562614509525982e-01 0.000000000000000000e+00
Cu 7.467697376204308624e-01 2.126027410036862852e-01 0.000000000000000000e+00
Cu 7.466257629552871533e-01 3.170884323340639743e-01 0.000000000000000000e+00
Cu 7.465529148954107574e-01 4.216051984878681491e-01 0.000000000000000000e+00
Cu 7.465538191258110912e-01 5.261474274193421730e-01 0.000000000000000000e+00
Cu 7.466047341780662761e-01 6.307114374385256461e-01 0.000000000000000000e+00
Cu 7.467367558121130733e-01 7.352827835298728631e-01 0.000000000000000000e+00
Cu 7.453932221316724727e-01 8.392742098678167562e-01 0.000000000000000000e+00
Cu 7.467849856455809343e-01 9.439726058565246491e-01 0.000000000000000000e+00
Cu 8.544220915924878312e-01 4.135390133605873833e-03 0.000000000000000000e+00
Cu 8.541025489293228024e-01 1.084508905453785421e-01 0.000000000000000000e+00
Cu 8.538569192240751393e-01 2.128157021110259894e-01 0.000000000000000000e+00
Cu 8.536895170441251013e-01 3.172187155890857091e-01 0.000000000000000000e+00
Cu 8.536051638535959718e-01 4.216514257528714560e-01 0.000000000000000000e+00
Cu 8.536056807911065469e-01 5.261085778168061999e-01 0.000000000000000000e+00
Cu 8.537144950784170128e-01 6.305868344097094180e-01 0.000000000000000000e+00
Cu 8.538954359112824744e-01 7.350677491353544424e-01 0.000000000000000000e+00
Cu 8.557094011113097753e-01 8.389427350534754968e-01 0.000000000000000000e+00
Cu 8.548472846436592221e-01 9.435414138965614317e-01 0.000000000000000000e+00
Cu 9.617638642100420077e-01 4.571710557423556628e-03 0.000000000000000000e+00
Cu 9.613981542224213639e-01 1.087921466823158906e-01 0.000000000000000000e+00
Cu 9.611187750443398459e-01 2.130587667994603973e-01 0.000000000000000000e+00
Cu 9.609301325728565324e-01 3.173564655955922742e-01 0.000000000000000000e+00
Cu 9.608385573001435587e-01 4.216724665147605910e-01 0.000000000000000000e+00
Cu 9.608588634204532353e-01 5.259898440091732574e-01 0.000000000000000000e+00
Cu 9.610168666546931027e-01 6.302684308956223447e-01 0.000000000000000000e+00
Cu 9.615638732952036527e-01 7.343552508905260012e-01 0.000000000000000000e+00
Cu 9.621293608922222296e-01 8.388155229058591456e-01 0.000000000000000000e+00
Cu 9.624250200273084532e-01 9.432403650751675084e-01 0.000000000000000000e+00
Cu 1.069304565936012752e+00 5.074919212438213506e-03 0.000000000000000000e+00
Cu 1.068893332823759534e+00 1.091890885861116489e-01 0.000000000000000000e+00
Cu 1.068585442821542220e+00 2.133411065411150720e-01 0.000000000000000000e+00
Cu 1.068383732597188995e+00 3.175103289954165908e-01 0.000000000000000000e+00
Cu 1.068297453352610615e+00 4.216797526064853807e-01 0.000000000000000000e+00
Cu 1.068345584446329433e+00 5.258292395187749158e-01 0.000000000000000000e+00
Cu 1.068583791180213183e+00 6.299296235370976937e-01 0.000000000000000000e+00
Cu 1.068944107488564166e+00 7.340932952595714545e-01 0.000000000000000000e+00
Cu 1.069357807701528440e+00 8.383282501326202452e-01 0.000000000000000000e+00
Cu 1.069889387320849261e+00 9.425316259770248895e-01 0.000000000000000000e+00
Cu 1.177059126412208112e+00 5.649793756639227144e-03 0.000000000000000000e+00
Cu 1.176609499655733471e+00 1.096493902321695746e-01 0.000000000000000000e+00
Cu 1.176285601973612316e+00 2.136724503284679333e-01 0.000000000000000000e+00
Cu 1.176084332947650468e+00 3.176931457549006521e-01 0.000000000000000000e+00
Cu 1.176009866195165232e+00 4.216970213405206169e-01 0.000000000000000000e+00
Cu 1.176075252549016570e+00 5.256811852857160572e-01 0.000000000000000000e+00
Cu 1.176268156626433248e+00 6.296800554498066527e-01 0.000000000000000000e+00
Cu 1.176564459378686589e+00 7.337184389048698741e-01 0.000000000000000000e+00
Cu 1.176976894870666479e+00 8.377787386801923697e-01 0.000000000000000000e+00
Cu 1.177525760093479201e+00 9.418246539206691637e-01 0.000000000000000000e+00
Cu 1.285034283415170675e+00 6.295141221216674944e-03 0.000000000000000000e+00
Cu 1.284562968526654414e+00 1.101762207351302814e-01 0.000000000000000000e+00
Cu 1.284245082296283647e+00 2.140601623028471623e-01 0.000000000000000000e+00
Cu 1.284062735812578016e+00 3.179180564917072349e-01 0.000000000000000000e+00
Cu 1.284003589868512263e+00 4.217446576441674644e-01 0.000000000000000000e+00
Cu 1.284055369982364025e+00 5.255616113430910952e-01 0.000000000000000000e+00
Cu 1.284208524141195573e+00 6.294005936821900349e-01 0.000000000000000000e+00
Cu 1.284470036551946581e+00 7.332780813113960461e-01 0.000000000000000000e+00
Cu 1.284861893883631589e+00 8.371873398095639462e-01 0.000000000000000000e+00
Cu 1.285403774745278227e+00 9.411042470959561923e-01 0.000000000000000000e+00
Cu 1.393226520195657958e+00 6.998958741468765295e-03 0.000000000000000000e+00
Cu 1.392763918819551749e+00 1.107625162370227123e-01 0.000000000000000000e+00
Cu 1.392487141397779071e+00 2.145015925212979679e-01 0.000000000000000000e+00
Cu 1.392352986160319661e+00 3.181866577952108255e-01 0.000000000000000000e+00
Cu 1.392320136791393104e+00 4.218228939556566415e-01 0.000000000000000000e+00
Cu 1.392358974011125516e+00 5.254436408131679670e-01 0.000000000000000000e+00
Cu 1.392466294374098634e+00 6.290909522080864180e-01 0.000000000000000000e+00
Cu 1.392667949696815510e+00 7.327937991167774445e-01 0.000000000000000000e+00
Cu 1.393004954928273254e+00 8.365556618139590173e-01 0.000000000000000000e+00
Cu 1.393520017747799988e+00 9.403487672623374038e-01 0.000000000000000000e+00
Cu 1.501621122286138421e+00 7.732079022785789089e-03 0.000000000000000000e+00
Cu 1.501217636845765924e+00 1.113829375901164848e-01 0.000000000000000000e+00
Cu 1.501035873605290005e+00 2.149724442949714487e-01 0.000000000000000000e+00
Cu 1.500995747847524653e+00 3.184767246762993387e-01 0.000000000000000000e+00
Cu 1.501017739610899682e+00 4.219138941685321442e-01 0.000000000000000000e+00
Cu 1.501047966779626597e+00 5.253287390606588003e-01 0.000000000000000000e+00
Cu 1.501085141201511153e+00 6.287739406599403003e-01 0.000000000000000000e+00
Cu 1.501180459857885285e+00 7.322927703218700124e-01 0.000000000000000000e+00
Cu 1.501411049817437560e+00 8.359018968110877301e-01 0.000000000000000000e+00
Cu 1.501855600940671387e+00 9.395767772201841783e-01 0.000000000000000000e+00
Cu 1.610191187696344173e+00 8.439962278880282220e-03 0.000000000000000000e+00
Cu 1.609929463676218031e+00 1.119841106254672453e-01 0.000000000000000000e+00
Cu 1.609922817860028443e+00 2.154136192418067142e-01 0.000000000000000000e+00
Cu 1.610035224862500725e+00 3.187325254298831179e-01 0.000000000000000000e+00
Cu 1.610140854009562306e+00 4.219911088710972535e-01 0.000000000000000000e+00
Cu 1.610165216432046797e+00 5.252362145061927334e-01 0.000000000000000000e+00
Cu 1.610107355966352793e+00 6.285006912503204868e-01 0.000000000000000000e+00
Cu 1.610039711853766153e+00 7.318308283716955520e-01 0.000000000000000000e+00
Cu 1.610086058582869573e+00 8.352758610118811156e-01 0.000000000000000000e+00
Cu 1.610380870659195107e+00 9.388385723716172748e-01 0.000000000000000000e+00
Cu 1.718892558846158547e+00 9.028324527484544657e-03 0.000000000000000000e+00
Cu 1.718916611572665731e+00 1.124683578681577589e-01 0.000000000000000000e+00
Cu 1.719199633474619793e+00 2.157144707467480993e-01 0.000000000000000000e+00
Cu 1.719508014207092206e+00 3.188604380099221980e-01 0.000000000000000000e+00
Cu 1.719690885020197957e+00 4.220175588202429440e-01 0.000000000000000000e+00
Cu 1.719711176171101696e+00 5.251985728650537810e-01 0.000000000000000000e+00
Cu 1.719568006926003090e+00 6.283600898522582190e-01 0.000000000000000000e+00
Cu 1.719296712957639750e+00 7.315144685935706104e-01 0.000000000000000000e+00
Cu 1.719046598478094490e+00 8.347721868887078012e-01 0.000000000000000000e+00
Cu 1.719049989484209506e+00 9.382257744063933202e-01 0.000000000000000000e+00
Cu 1.827645690017250857e+00 9.319924668742691695e-03 0.000000000000000000e+00
Cu 1.828239667709616878e+00 1.126509891481573961e-01 0.000000000000000000e+00
Cu 1.828948611989968720e+00 2.156884459193967596e-01 0.000000000000000000e+00
Cu 1.829406863059875876e+00 3.187607121810503985e-01 0.000000000000000000e+00
Cu 1.829602875242041682e+00 4.219716002276255873e-01 0.000000000000000000e+00
Cu 1.829620452747553694e+00 5.252337176140038366e-01 0.000000000000000000e+00
Cu 1.829458791314189980e+00 6.284480000127419252e-01 0.000000000000000000e+00
Cu 1.829032535946623073e+00 7.315266278594448890e-01 0.000000000000000000e+00
Cu 1.828351913653448735e+00 8.345725752252178831e-01 0.000000000000000000e+00
Cu 1.827781770650296345e+00 9.379130479311761359e-01 0.000000000000000000e+00
Cu 1.936296394050516012e+00 8.909973733671968515e-03 0.000000000000000000e+00
Cu 1.938083787453328766e+00 1.121125928816388007e-01 0.000000000000000000e+00
Cu 1.939181943974405131e+00 2.151353107093579020e-01 0.000000000000000000e+00
Cu 1.939614515920997873e+00 3.184466311179495746e-01 0.000000000000000000e+00
Cu 1.939781270075841446e+00 4.218697503551121497e-01 0.000000000000000000e+00
Cu 1.939797143398384938e+00 5.253217428120874333e-01 0.000000000000000000e+00
Cu 1.939661456289321961e+00 6.287478199503204745e-01 0.000000000000000000e+00
Cu 1.939257931778523458e+00 7.320644892064621656e-01 0.000000000000000000e+00
Cu 1.938185594271270906e+00 8.350938765078007586e-01 0.000000000000000000e+00
Cu 1.936420137977586720e+00 9.383029356882915950e-01 0.000000000000000000e+00
Cu 2.044548012538391024e+00 6.076679439304456289e-03 0.000000000000000000e+00
Cu 2.048495337602450395e+00 1.102720718325497923e-01 0.000000000000000000e+00
Cu 2.049572497848397568e+00 2.142691802664808964e-01 0.000000000000000000e+00
Cu 2.050014075927250712e+00 3.180680341895097407e-01 0.000000000000000000e+00
Cu 2.050176147642436053e+00 4.217566603629631095e-01 0.000000000000000000e+00
Cu 2.050190949456841771e+00 5.254148848646774672e-01 0.000000000000000000e+00
Cu 2.050057964880148464e+00 6.291066991757514604e-01 0.000000000000000000e+00
Cu 2.049643963301559957e+00 7.329112436414725318e-01 0.000000000000000000e+00
Cu 2.048591954611738597e+00 8.369151222697230885e-01 0.000000000000000000e+00
Cu 2.044666705080838476e+00 9.411163413935801358e-01 0.000000000000000000e+00
