200

Cu 0.000000000000000000e+00 1.379026443775422522e-02 0.000000000000000000e+00
Cu 0.000000000000000000e+00 1.163252485930731384e-01 0.000000000000000000e+00
Cu 0.000000000000000000e+00 2.184703087323308646e-01 0.000000000000000000e+00
Cu 0.000000000000000000e+00 3.204498430352959448e-01 0.000000000000000000e+00
Cu 0.000000000000000000e+00 4.223827946136147204e-01 0.000000000000000000e+00
Cu 0.000000000000000000e+00 5.243232637617721847e-01 0.000000000000000000e+00
Cu 0.000000000000000000e+00 6.263117974776247765e-01 0.000000000000000000e+00
Cu 0.000000000000000000e+00 7.283964230594682787e-01 0.000000000000000000e+00
Cu 0.000000000000000000e+00 8.306824510978074727e-01 0.000000000000000000e+00
Cu 0.000000000000000000e+00 9.333723214252701572e-01 0.000000000000000000e+00
Cu 1.134120774279541999e-01 1.555881141626968417e-02 0.000000000000000000e+00
Cu 1.128208818243989914e-01 1.169331855447020146e-01 0.000000000000000000e+00
Cu 1.127497879825243715e-01 2.187288985017640242e-01 0.000000000000000000e+00
Cu 1.127035936701142327e-01 3.205777013185440727e-01 0.000000000000000000e+00
Cu 1.126528902403788196e-01 4.224306391680259232e-01 0.000000000000000000e+00
Cu 1.125941721036083781e-01 5.243048207956283457e-01 0.000000000000000000e+00
Cu 1.125301644109467647e-01 6.262181046402355289e-01 0.000000000000000000e+00
Cu 1.124692141506272447e-01 7.281803809439060249e-01 0.000000000000000000e+00
Cu 1.124427378782176939e-01 8.301377751496936686e-01 0.000000000000000000e+00
Cu 1.129202975640021533e-01 9.317359637590169053e-01 0.000000000000000000e+00
Cu 2.266001314840084824e-01 1.643154069530868358e-02 0.000000000000000000e+00
Cu 2.260421563402018053e-01 1.177695408135961130e-01 0.000000000000000000e+00
Cu 2.257120411370771851e-01 2.192343130505382820e-01 0.000000000000000000e+00
Cu 2.255549441661053034e-01 3.208694591746634739e-01 0.000000000000000000e+00
Cu 2.254263193139612875e-01 4.225712624016685348e-01 0.000000000000000000e+00
Cu 2.253034244484701243e-01 5.243122912283567638e-01 0.000000000000000000e+00
Cu 2.251969013763712169e-01 6.260813890054861552e-01 0.000000000000000000e+00
Cu 2.251387878224881678e-01 7.278366759002031783e-01 0.000000000000000000e+00
Cu 2.252623235191724971e-01 8.294741048544240769e-01 0.000000000000000000e+00
Cu 2.256164888311662231e-01 9.310407390355227575e-01 0.000000000000000000e+00
Cu 3.397633070279211243e-01 1.714616037791735076e-02 0.000000000000000000e+00
Cu 3.392561087890492710e-01 1.184573912651975675e-01 0.000000000000000000e+00
Cu 3.388716148622970548e-01 2.198317582583426133e-01 0.000000000000000000e+00
Cu 3.386063844485424079e-01 3.212895850823837551e-01 0.000000000000000000e+00
Cu 3.383962739849020185e-01 4.228073077391071299e-01 0.000000000000000000e+00
Cu 3.381987670580474670e-01 5.243581146999630738e-01 0.000000000000000000e+00
Cu 3.380489875698484137e-01 6.259386699628255446e-01 0.000000000000000000e+00
Cu 3.380015408289351320e-01 7.275098252733792625e-01 0.000000000000000000e+00
Cu 3.380763764413817762e-01 8.290497831041999666e-01 0.000000000000000000e+00
Cu 3.382698146645745640e-01 9.305944470217925035e-01 0.000000000000000000e+00
Cu 4.529792652670954212e-01 1.779911459870398699e-02 0.000000000000000000e+00
Cu 4.525048690607408886e-01 1.190746505791785703e-01 0.000000000000000000e+00
Cu 4.521274176831618363e-01 2.203987635417393176e-01 0.000000000000000000e+00
Cu 4.518417216958952598e-01 3.217673543979491235e-01 0.000000000000000000e+00
Cu 4.516100867091946136e-01 4.231488399472902451e-01 0.000000000000000000e+00
Cu 4.513463820629954881e-01 5.244829212344143121e-01 0.000000000000000000e+00
Cu 4.510901323931069129e-01 6.258385777995907340e-01 0.000000000000000000e+00
Cu 4.509601100676688401e-01 7.272917270279736224e-01 0.000000000000000000e+00
Cu 4.509260073738696195e-01 8.288052220823648453e-01 0.000000000000000000e+00
Cu 4.509346074412088901e-01 9.303388611932928987e-01 0.000000000000000000e+00
Cu 5.662922002655226272e-01 1.842567270268755455e-02 0.000000000000000000e+00
Cu 5.658382444825880153e-01 1.196448423622324675e-01 0.000000000000000000e+00
Cu 5.654791184878418253e-01 2.209170620479199432e-01 0.000000000000000000e+00
Cu 5.652161028075205484e-01 3.222324944209846165e-01 0.000000000000000000e+00
Cu 5.650246448019291545e-01 4.235566450498998714e-01 0.000000000000000000e+00
Cu 5.648408399643946032e-01 5.248091045293574730e-01 0.000000000000000000e+00
Cu 5.643919575584980253e-01 6.258320620842725557e-01 0.000000000000000000e+00
Cu 5.639532411439351911e-01 7.271056806760367586e-01 0.000000000000000000e+00
Cu 5.637957485179804218e-01 8.287366123937400797e-01 0.000000000000000000e+00
Cu 5.636397019331728098e-01 9.303698099842167002e-01 0.000000000000000000e+00
Cu 6.797462567898768793e-01 1.903917042361645551e-02 0.000000000000000000e+00
Cu 6.793011254891578865e-01 1.201783818485983035e-01 0.000000000000000000e+00
Cu 6.789531203775261980e-01 2.213787648382534445e-01 0.000000000000000000e+00
Cu 6.787114998223345852e-01 3.226362737454306351e-01 0.000000000000000000e+00
Cu 6.785785855884577389e-01 4.239374244448145257e-01 0.000000000000000000e+00
Cu 6.785005636085819081e-01 5.252360975715594238e-01 0.000000000000000000e+00
Cu 6.784148728254852934e-01 6.263978471494491274e-01 0.000000000000000000e+00
Cu 6.770652829657234362e-01 7.267156389224826984e-01 0.000000000000000000e+00
Cu 6.761591427057412895e-01 8.287269430112709223e-01 0.000000000000000000e+00
Cu 6.766619047822589605e-01 9.307977730521490578e-01 0.000000000000000000e+00
Cu 7.933874221930703463e-01 1.965191702389540440e-02 0.000000000000000000e+00
Cu 7.929395697502862328e-01 1.206858646377894084e-01 0.000000000000000000e+00
Cu 7.925897942360324855e-01 2.217856492558322734e-01 0.000000000000000000e+00
Cu 7.923541344794650110e-01 3.229523113663770317e-01 0.000000000000000000e+00
Cu 7.922404732785264247e-01 4.241908763686439987e-01 0.000000000000000000e+00
Cu 7.922665630111898061e-01 5.255163793463158983e-01 0.000000000000000000e+00
Cu 7.922845952536285985e-01 6.269485666777347976e-01 0.000000000000000000e+00
Cu 7.927065614998832777e-01 7.285068103863975297e-01 0.000000000000000000e+00
Cu 7.857834265517119610e-01 8.274790265030388392e-01 0.000000000000000000e+00
Cu 7.913815438772986433e-01 9.297967531028538124e-01 0.000000000000000000e+00
Cu 9.072612949785936465e-01 2.027849394058298463e-02 0.000000000000000000e+00
Cu 9.068008466853164640e-01 1.211821777910152970e-01 0.000000000000000000e+00
Cu 9.064412585343801787e-01 2.221489151738392787e-01 0.000000000000000000e+00
Cu 9.061997770288472420e-01 3.231767997897249112e-01 0.000000000000000000e+00
Cu 9.060961964309393046e-01 4.242710679406277441e-01 0.000000000000000000e+00
Cu 9.061269808727911990e-01 5.254488168831802364e-01 0.000000000000000000e+00
Cu 9.064364310087953402e-01 6.267330427449077090e-01 0.000000000000000000e+00
Cu 9.065838681455371528e-01 7.281428969558707553e-01 0.000000000000000000e+00
Cu 9.142767799964003350e-01 8.268954360689325656e-01 0.000000000000000000e+00
Cu 9.096078100178826009e-01 9.291105087270365992e-01 0.000000000000000000e+00
Cu 1.021409145822457676e+00 2.093466740791463318e-02 0.000000000000000000e+00
Cu 1.020930956434210612e+00 1.216854203359992864e-01 0.000000000000000000e+00
Cu 1.020562985166438175e+00 2.224860501949431080e-01 0.000000000000000000e+00
Cu 1.020326134373558125e+00 3.233223334711460839e-01 0.000000000000000000e+00
Cu 1.020243742534648890e+00 4.241812792699927170e-01 0.000000000000000000e+00
Cu 1.020383500372850749e+00 5.250262669474136112e-01 0.000000000000000000e+00
Cu 1.020799374323132280e+00 6.257351459265931837e-01 0.000000000000000000e+00
Cu 1.022726255308105348e+00 7.256028916403884921e-01 0.000000000000000000e+00
Cu 1.024420445853739592e+00 8.271785730569676254e-01 0.000000000000000000e+00
Cu 1.024902362041629100e+00 9.288308295860462360e-01 0.000000000000000000e+00
Cu 1.135863264722120958e+00 2.163531370937625542e-02 0.000000000000000000e+00
Cu 1.135369637269738829e+00 1.222155744348259049e-01 0.000000000000000000e+00
Cu 1.135007947181678079e+00 2.228204636386162951e-01 0.000000000000000000e+00
Cu 1.134799394677241224e+00 3.234181976183169716e-01 0.000000000000000000e+00
Cu 1.134786441780124999e+00 4.239751437614405205e-01 0.000000000000000000e+00
Cu 1.135038767220838629e+00 5.244354837822435833e-01 0.000000000000000000e+00
Cu 1.135824380391279087e+00 6.246757311159217840e-01 0.000000000000000000e+00
Cu 1.136851721158844031e+00 7.252000326022761678e-01 0.000000000000000000e+00
Cu 1.137827700186129665e+00 8.261221499191946371e-01 0.000000000000000000e+00
Cu 1.138999509847653302e+00 9.270603351857837904e-01 0.000000000000000000e+00
Cu 1.250640940999951711e+00 2.239166635147151960e-02 0.000000000000000000e+00
Cu 1.250145063506705290e+00 1.227928446711968741e-01 0.000000000000000000e+00
Cu 1.249816317053309200e+00 2.231824298788863126e-01 0.000000000000000000e+00
Cu 1.249668179227720444e+00 3.235138843250290885e-01 0.000000000000000000e+00
Cu 1.249732003175661577e+00 4.237587100150280728e-01 0.000000000000000000e+00
Cu 1.250077657203678250e+00 5.239086348848033259e-01 0.000000000000000000e+00
Cu 1.250661116666571759e+00 6.241071303971197359e-01 0.000000000000000000e+00
Cu 1.251371698288655798e+00 7.244847546110586567e-01 0.000000000000000000e+00
Cu 1.252236108069004317e+00 8.250078678446657321e-01 0.000000000000000000e+00
Cu 1.253289892993666221e+00 9.255939901454567353e-01 0.000000000000000000e+00
Cu 1.365738187012100369e+00 2.320579214055698905e-02 0.000000000000000000e+00
Cu 1.365268438933660455e+00 1.234319995088213467e-01 0.000000000000000000e+00
Cu 1.365013068415567243e+00 2.236021556474988015e-01 0.000000000000000000e+00
Cu 1.364954205199651938e+00 3.236647682806667037e-01 0.000000000000000000e+00
Cu 1.365085670812535401e+00 4.236186757660374003e-01 0.000000000000000000e+00
Cu 1.365384488215783065e+00 5.235379884701257813e-01 0.000000000000000000e+00
Cu 1.365811465900867105e+00 6.235311614455073537e-01 0.000000000000000000e+00
Cu 1.366367363163056403e+00 7.236600645958742861e-01 0.000000000000000000e+00
Cu 1.367091707278852208e+00 8.239256462109469936e-01 0.000000000000000000e+00
Cu 1.368002225955219364e+00 9.242931521078303625e-01 0.000000000000000000e+00
Cu 1.481125069602080568e+00 2.406021564387922709e-02 0.000000000000000000e+00
Cu 1.480732992923005753e+00 1.241292132529022429e-01 0.000000000000000000e+00
Cu 1.480610730937760966e+00 2.240898346759041260e-01 0.000000000000000000e+00
Cu 1.480684499314447233e+00 3.238934091139894500e-01 0.000000000000000000e+00
Cu 1.480877579975647063e+00 4.235695519224826344e-01 0.000000000000000000e+00
Cu 1.481126418298406078e+00 5.232117575569418255e-01 0.000000000000000000e+00
Cu 1.481416080061530360e+00 6.229296752873059173e-01 0.000000000000000000e+00
Cu 1.481791395517489507e+00 7.228015343499438750e-01 0.000000000000000000e+00
Cu 1.482325785263394868e+00 8.228522270409610595e-01 0.000000000000000000e+00
Cu 1.483089757375155360e+00 9.230389014888269461e-01 0.000000000000000000e+00
Cu 1.596744366567223850e+00 2.490273642330731452e-02 0.000000000000000000e+00
Cu 1.596518206901790471e+00 1.248428729006933746e-01 0.000000000000000000e+00
Cu 1.596622977327051718e+00 2.246074094306807767e-01 0.000000000000000000e+00
Cu 1.596904054348881719e+00 3.241616415696935705e-01 0.000000000000000000e+00
Cu 1.597205701417304224e+00 4.235611999374277459e-01 0.000000000000000000e+00
Cu 1.597419569445692966e+00 5.229156419669532818e-01 0.000000000000000000e+00
Cu 1.597538311822565449e+00 6.223479142228626193e-01 0.000000000000000000e+00
Cu 1.597656179577775504e+00 7.219615110705825956e-01 0.000000000000000000e+00
Cu 1.597917992901854767e+00 8.218061692813868335e-01 0.000000000000000000e+00
Cu 1.598472513763200542e+00 9.218438385400297141e-01 0.000000000000000000e+00
Cu 1.712510221850012782e+00 2.562750923067977707e-02 0.000000000000000000e+00
Cu 1.712600594748200367e+00 1.254719474002210233e-01 0.000000000000000000e+00
Cu 1.713079268414309686e+00 2.250423370922519095e-01 0.000000000000000000e+00
Cu 1.713675204731799795e+00 3.243567995654368930e-01 0.000000000000000000e+00
Cu 1.714141148038972773e+00 4.235330056563949563e-01 0.000000000000000000e+00
Cu 1.714330510805537777e+00 5.226814052287607204e-01 0.000000000000000000e+00
Cu 1.714237474054864041e+00 6.218824618081952860e-01 0.000000000000000000e+00
Cu 1.713997330896177118e+00 7.212440546778864370e-01 0.000000000000000000e+00
Cu 1.713847760174327162e+00 8.208793550654028826e-01 0.000000000000000000e+00
Cu 1.714053250669250739e+00 9.208013586119585536e-01 0.000000000000000000e+00
Cu 1.828296254578587465e+00 2.604569166662451182e-02 0.000000000000000000e+00
Cu 1.828974112043837419e+00 1.258251435062720802e-01 0.000000000000000000e+00
Cu 1.830049305197026133e+00 2.251757329041997047e-01 0.000000000000000000e+00
Cu 1.831050067338869214e+00 3.242897788173664253e-01 0.000000000000000000e+00
Cu 1.831672711119765928e+00 4.234067842517076907e-01 0.000000000000000000e+00
Cu 1.831845234924522003e+00 5.225692980987916014e-01 0.000000000000000000e+00
Cu 1.831561980808958268e+00 6.217050831641752762e-01 0.000000000000000000e+00
Cu 1.830884482145658687e+00 7.208550054135266505e-01 0.000000000000000000e+00
Cu 1.830108540252358695e+00 8.202552587655717042e-01 0.000000000000000000e+00
Cu 1.829700595407933950e+00 9.200936467136467956e-01 0.000000000000000000e+00
Cu 1.943887890508111616e+00 2.580416294564957802e-02 0.000000000000000000e+00
Cu 1.945707325722810355e+00 1.255372334786444832e-01 0.000000000000000000e+00
Cu 1.947670394454638076e+00 2.246292560176018083e-01 0.000000000000000000e+00
Cu 1.949002680360700790e+00 3.237503855563819699e-01 0.000000000000000000e+00
Cu 1.949663239045489993e+00 4.231335717952224851e-01 0.000000000000000000e+00
Cu 1.949825084748397774e+00 5.226130793370715732e-01 0.000000000000000000e+00
Cu 1.949482597059513989e+00 6.220112508220917436e-01 0.000000000000000000e+00
Cu 1.948452066953427764e+00 7.211606110762731614e-01 0.000000000000000000e+00
Cu 1.946766224526389699e+00 8.202906927128768011e-01 0.000000000000000000e+00
Cu 1.945196387349028555e+00 9.200674651081705013e-01 0.000000000000000000e+00
Cu 2.058844049294005440e+00 2.408218327932156594e-02 0.000000000000000000e+00
Cu 2.063125835005774178e+00 1.237579040729431118e-01 0.000000000000000000e+00
Cu 2.065977763402449874e+00 2.229634224520470609e-01 0.000000000000000000e+00
Cu 2.067287880411309953e+00 3.227530571115432845e-01 0.000000000000000000e+00
Cu 2.067917607978670080e+00 4.227379608196744076e-01 0.000000000000000000e+00
Cu 2.068073217700012734e+00 5.227737173565426554e-01 0.000000000000000000e+00
Cu 2.067749650321013544e+00 6.227732638452422309e-01 0.000000000000000000e+00
Cu 2.066730319435441832e+00 7.225892790739139038e-01 0.000000000000000000e+00
Cu 2.064143664038537551e+00 8.218287617905107867e-01 0.000000000000000000e+00
Cu 2.060096811632177616e+00 9.215390895542323602e-01 0.000000000000000000e+00
Cu 2.172074693181616389e+00 1.722331120117962661e-02 0.000000000000000000e+00
Cu 2.181481663703162877e+00 1.191658313504678768e-01 0.000000000000000000e+00
Cu 2.184291786590563333e+00 2.206369775981321946e-01 0.000000000000000000e+00
Cu 2.185686658235636681e+00 3.216085157509632753e-01 0.000000000000000000e+00
Cu 2.186320669619576940e+00 4.223115619858966441e-01 0.000000000000000000e+00
Cu 2.186472410609454187e+00 5.229456195399779794e-01 0.000000000000000000e+00
Cu 2.186137784604929468e+00 6.236669728003172430e-01 0.000000000000000000e+00
Cu 2.185030132737300512e+00 7.246717499129842199e-01 0.000000000000000000e+00
Cu 2.182486477269607317e+00 8.261836042919505907e-01 0.000000000000000000e+00
Cu 2.173316896118402841e+00 9.281694976427706800e-01 0.000000000000000000e+00
