200

Cu 0.000000000000000000e+00 -2.103253879027874222e-04 0.000000000000000000e+00
Cu 0.000000000000000000e+00 1.035768607002258007e-01 0.000000000000000000e+00
Cu 0.000000000000000000e+00 2.074758798641390123e-01 0.000000000000000000e+00
Cu 0.000000000000000000e+00 3.116344251786893338e-01 0.000000000000000000e+00
Cu 0.000000000000000000e+00 4.161108417861840714e-01 0.000000000000000000e+00
Cu 0.000000000000000000e+00 5.209151530752070824e-01 0.000000000000000000e+00
Cu 0.000000000000000000e+00 6.260472183724439255e-01 0.000000000000000000e+00
Cu 0.000000000000000000e+00 7.315082615989416670e-01 0.000000000000000000e+00
Cu 0.000000000000000000e+00 8.372882816472222434e-01 0.000000000000000000e+00
Cu 0.000000000000000000e+00 9.433346950634731165e-01 0.000000000000000000e+00
Cu 1.102558693812809715e-01 1.229460015234259962e-03 0.000000000000000000e+00
Cu 1.090829174367759918e-01 1.042901125067536433e-01 0.000000000000000000e+00
Cu 1.082276026126286206e-01 2.080064917690717941e-01 0.000000000000000000e+00
Cu 1.073977883757338825e-01 3.121351880371917575e-01 0.000000000000000000e+00
Cu 1.065765333712616891e-01 4.166241057005862780e-01 0.000000000000000000e+00
Cu 1.057553118736638265e-01 5.214554555831925065e-01 0.000000000000000000e+00
Cu 1.049218830640788053e-01 6.266174269621115345e-01 0.000000000000000000e+00
Cu 1.040554100350560007e-01 7.321155231981364420e-01 0.000000000000000000e+00
Cu 1.031184459927321773e-01 8.380119266719788795e-01 0.000000000000000000e+00
Cu 1.018624839287033401e-01 9.445622582754045204e-01 0.000000000000000000e+00
Cu 2.203293238188016867e-01 3.018276498765350060e-03 0.000000000000000000e+00
Cu 2.183308096616465022e-01 1.061039497809008747e-01 0.000000000000000000e+00
Cu 2.164748025401720122e-01 2.096783106640510153e-01 0.000000000000000000e+00
Cu 2.147522498043977213e-01 3.137690582371017722e-01 0.000000000000000000e+00
Cu 2.130827387392753292e-01 4.182877692711254314e-01 0.000000000000000000e+00
Cu 2.114369477415369847e-01 5.231810988431326859e-01 0.000000000000000000e+00
Cu 2.097801176967705739e-01 6.284175902935208446e-01 0.000000000000000000e+00
Cu 2.080508110496586127e-01 7.339994596636950641e-01 0.000000000000000000e+00
Cu 2.061252854824405234e-01 8.399962758059196233e-01 0.000000000000000000e+00
Cu 2.039240543196269295e-01 9.464472995791423093e-01 0.000000000000000000e+00
Cu 3.302305195680466654e-01 5.627569164865770142e-03 0.000000000000000000e+00
Cu 3.273959162521323796e-01 1.087685987542550553e-01 0.000000000000000000e+00
Cu 3.246374777992639959e-01 2.123808714610072312e-01 0.000000000000000000e+00
Cu 3.219919756380615339e-01 3.164841602865874348e-01 0.000000000000000000e+00
Cu 3.194517720500532065e-01 4.210539325509781161e-01 0.000000000000000000e+00
Cu 3.169826026534326435e-01 5.260306081009814561e-01 0.000000000000000000e+00
Cu 3.145345405124087557e-01 6.313632105433737429e-01 0.000000000000000000e+00
Cu 3.120129890920729232e-01 7.370205354680728904e-01 0.000000000000000000e+00
Cu 3.092980316683007769e-01 8.429877056347967468e-01 0.000000000000000000e+00
Cu 3.062747003819996094e-01 9.492977683366756736e-01 0.000000000000000000e+00
Cu 4.399285020995777895e-01 9.104207036782026655e-03 0.000000000000000000e+00
Cu 4.362226004977693972e-01 1.123169845664172273e-01 0.000000000000000000e+00
Cu 4.325679576421859185e-01 2.160115981786822625e-01 0.000000000000000000e+00
Cu 4.290230537615709050e-01 3.201959133553508030e-01 0.000000000000000000e+00
Cu 4.256168732145417244e-01 4.248414926897544075e-01 0.000000000000000000e+00
Cu 4.223469048462817899e-01 5.298973062033336401e-01 0.000000000000000000e+00
Cu 4.191749765478632317e-01 6.353010030910909434e-01 0.000000000000000000e+00
Cu 4.160114927660965578e-01 7.409841172497364514e-01 0.000000000000000000e+00
Cu 4.127009628544008879e-01 8.468838563749138126e-01 0.000000000000000000e+00
Cu 4.090457148932176712e-01 9.529957162874421739e-01 0.000000000000000000e+00
Cu 5.493975974974329990e-01 1.347307501840239521e-02 0.000000000000000000e+00
Cu 5.447724263069351203e-01 1.167512427852832463e-01 0.000000000000000000e+00
Cu 5.401909830551405722e-01 2.205367795734606562e-01 0.000000000000000000e+00
Cu 5.357544456835204860e-01 3.248238166129205351e-01 0.000000000000000000e+00
Cu 5.315228389853864366e-01 4.295549560277610590e-01 0.000000000000000000e+00
Cu 5.275156278119488285e-01 5.346487003127305959e-01 0.000000000000000000e+00
Cu 5.237226241352055389e-01 6.400395582199553957e-01 0.000000000000000000e+00
Cu 5.200740435189313837e-01 7.456656532558906259e-01 0.000000000000000000e+00
Cu 5.163940013954849695e-01 8.514566435862142013e-01 0.000000000000000000e+00
Cu 5.123884504021908315e-01 9.573263366863253854e-01 0.000000000000000000e+00
Cu 6.586361858991376383e-01 1.877847394354830238e-02 0.000000000000000000e+00
Cu 6.530209340986732336e-01 1.220927192456658372e-01 0.000000000000000000e+00
Cu 6.474539078020118410e-01 2.259357255556026234e-01 0.000000000000000000e+00
Cu 6.421194564837751084e-01 3.303064634455314952e-01 0.000000000000000000e+00
Cu 6.371277413811655688e-01 4.350972186579206702e-01 0.000000000000000000e+00
Cu 6.325194222437009461e-01 5.401615860432392724e-01 0.000000000000000000e+00
Cu 6.282541894364007673e-01 6.453752406443614698e-01 0.000000000000000000e+00
Cu 6.242633556925165639e-01 7.507713103532382970e-01 0.000000000000000000e+00
Cu 6.204147739486856050e-01 8.563378954820929367e-01 0.000000000000000000e+00
Cu 6.164431278156725647e-01 9.619514255526138147e-01 0.000000000000000000e+00
Cu 7.676455727931886797e-01 2.510840066675254501e-02 0.000000000000000000e+00
Cu 7.609691373065997633e-01 1.284176224853346981e-01 0.000000000000000000e+00
Cu 7.543368735918197787e-01 2.322284088694527571e-01 0.000000000000000000e+00
Cu 7.480583543771404109e-01 3.365850459211338630e-01 0.000000000000000000e+00
Cu 7.424026965184435944e-01 4.413734529266614692e-01 0.000000000000000000e+00
Cu 7.374168443660434891e-01 5.462764701384702493e-01 0.000000000000000000e+00
Cu 7.329802451609267466e-01 6.511468027099496236e-01 0.000000000000000000e+00
Cu 7.287244379348924994e-01 7.559766545690241868e-01 0.000000000000000000e+00
Cu 7.248236636974855207e-01 8.611082519725070661e-01 0.000000000000000000e+00
Cu 7.213331167239759312e-01 9.661442881675874617e-01 0.000000000000000000e+00
Cu 8.763891095949236654e-01 3.255067152301534261e-02 0.000000000000000000e+00
Cu 8.686128260926759825e-01 1.358656222322947027e-01 0.000000000000000000e+00
Cu 8.608858897965065982e-01 2.395535986733940415e-01 0.000000000000000000e+00
Cu 8.535642237157592405e-01 3.436582303768528357e-01 0.000000000000000000e+00
Cu 8.472785515945422397e-01 4.482142338594377051e-01 0.000000000000000000e+00
Cu 8.424234325852890670e-01 5.527742598443120547e-01 0.000000000000000000e+00
Cu 8.380770841780985636e-01 6.569351698580209176e-01 0.000000000000000000e+00
Cu 8.336603354139321409e-01 7.615654891914196423e-01 0.000000000000000000e+00
Cu 2.194692926004593758e+00 7.071395204293861037e-01 0.000000000000000000e+00
Cu 2.175983053491686192e+00 8.102973491429921182e-01 0.000000000000000000e+00
Cu 9.847990216455770884e-01 4.121289435592370015e-02 0.000000000000000000e+00
Cu 9.758406700689028490e-01 1.445267734685473371e-01 0.000000000000000000e+00
Cu 9.671226421148488850e-01 2.482297282203004274e-01 0.000000000000000000e+00
Cu 9.588229985428621260e-01 3.518487097007969577e-01 0.000000000000000000e+00
Cu 9.518010024643440703e-01 4.554533195528581713e-01 0.000000000000000000e+00
Cu 9.481194997951573056e-01 5.585459847712892500e-01 0.000000000000000000e+00
Cu 9.435871390775326661e-01 6.627429705404110916e-01 0.000000000000000000e+00
Cu 2.322953181255664745e+00 6.246048366074133940e-01 0.000000000000000000e+00
Cu 2.302577008921500745e+00 7.262888880415315773e-01 0.000000000000000000e+00
Cu 2.285876582651864997e+00 8.267803844586339990e-01 0.000000000000000000e+00
Cu 1.092729968562879961e+00 5.115143208670270419e-02 0.000000000000000000e+00
Cu 1.082547984289533138e+00 1.545915690066656523e-01 0.000000000000000000e+00
Cu 1.072624031597469108e+00 2.582153369544005761e-01 0.000000000000000000e+00
Cu 1.063808014658425449e+00 3.623562507630035401e-01 0.000000000000000000e+00
Cu 2.499767534690039650e+00 3.398784173198391434e-01 0.000000000000000000e+00
Cu 2.470056244965382231e+00 4.401108383424356396e-01 0.000000000000000000e+00
Cu 2.453785672086471692e+00 5.430640723937173453e-01 0.000000000000000000e+00
Cu 2.432548776138942159e+00 6.435347777394531121e-01 0.000000000000000000e+00
Cu 2.415423587189873267e+00 7.429180207235780431e-01 0.000000000000000000e+00
Cu 2.401307385731192401e+00 8.413122537852695260e-01 0.000000000000000000e+00
Cu 1.200073667398400712e+00 6.262336916325234037e-02 0.000000000000000000e+00
Cu 1.188353909385782003e+00 1.660439188887550821e-01 0.000000000000000000e+00
Cu 1.177511705504209250e+00 2.701509223203452104e-01 0.000000000000000000e+00
Cu 2.632459754348742909e+00 2.636025628714517288e-01 0.000000000000000000e+00
Cu 2.605840070132650066e+00 3.641243146149926169e-01 0.000000000000000000e+00
Cu 2.586831569415596999e+00 4.633235393846931172e-01 0.000000000000000000e+00
Cu 2.564461295242680183e+00 5.607474999666507420e-01 0.000000000000000000e+00
Cu 2.547708638719051955e+00 6.595541886532224618e-01 0.000000000000000000e+00
Cu 2.533104774636659506e+00 7.567894673682810103e-01 0.000000000000000000e+00
Cu 2.521450964770743930e+00 8.532073163830322660e-01 0.000000000000000000e+00
Cu 1.306482830911769089e+00 7.558292031392654930e-02 0.000000000000000000e+00
Cu 1.293327205249852785e+00 1.794928936606658976e-01 0.000000000000000000e+00
Cu 2.768361067650848106e+00 1.892518525569092669e-01 0.000000000000000000e+00
Cu 2.741402831305765897e+00 2.879503132172316904e-01 0.000000000000000000e+00
Cu 2.719640158615651337e+00 3.850884872472589149e-01 0.000000000000000000e+00
Cu 2.700503653966870310e+00 4.817773359748857565e-01 0.000000000000000000e+00
Cu 2.682935602685446508e+00 5.778754147527987994e-01 0.000000000000000000e+00
Cu 2.667660091665408739e+00 6.729342317576468835e-01 0.000000000000000000e+00
Cu 2.655353011543895914e+00 7.680541111458266679e-01 0.000000000000000000e+00
Cu 2.645654222325164007e+00 8.626281269415352337e-01 0.000000000000000000e+00
Cu 1.411901554076187670e+00 9.107469530410383651e-02 0.000000000000000000e+00
Cu 2.904543298557442199e+00 1.165578296881453479e-01 0.000000000000000000e+00
Cu 2.878801716043638326e+00 2.142604502348595397e-01 0.000000000000000000e+00
Cu 2.857246190777625205e+00 3.097956535610886242e-01 0.000000000000000000e+00
Cu 2.838341178063583659e+00 4.040028209941807780e-01 0.000000000000000000e+00
Cu 2.821357276381747603e+00 4.977282073699381137e-01 0.000000000000000000e+00
Cu 2.806089048755854076e+00 5.910970270158465434e-01 0.000000000000000000e+00
Cu 2.792716030730741927e+00 6.841598077697925717e-01 0.000000000000000000e+00
Cu 2.781676734596308709e+00 7.770873478303707005e-01 0.000000000000000000e+00
Cu 2.773445903025401282e+00 8.699635205371011315e-01 0.000000000000000000e+00
Cu 3.037835688330555506e+00 4.329040806226286398e-02 0.000000000000000000e+00
Cu 3.016101270688047453e+00 1.409120464398569417e-01 0.000000000000000000e+00
Cu 2.996606902022574737e+00 2.354255945904238367e-01 0.000000000000000000e+00
Cu 2.979085299511803342e+00 3.281235655547873331e-01 0.000000000000000000e+00
Cu 2.962972474412673751e+00 4.198236778171393624e-01 0.000000000000000000e+00
Cu 2.947962117582543673e+00 5.110206934417078628e-01 0.000000000000000000e+00
Cu 2.934154051032798804e+00 6.020582787517196888e-01 0.000000000000000000e+00
Cu 2.921899376384569536e+00 6.931280812418351145e-01 0.000000000000000000e+00
Cu 2.911756586156634352e+00 7.843459172153157688e-01 0.000000000000000000e+00
Cu 2.904377087812074265e+00 8.756926017978624577e-01 0.000000000000000000e+00
Cu 3.150077028158499548e+00 6.366997958459716389e-02 0.000000000000000000e+00
Cu 3.135274098028691281e+00 1.593986559654225199e-01 0.000000000000000000e+00
Cu 3.120777929196979272e+00 2.520320707582030528e-01 0.000000000000000000e+00
Cu 3.106772932770617945e+00 3.427768493417212570e-01 0.000000000000000000e+00
Cu 3.093056140350874728e+00 4.325776109779603806e-01 0.000000000000000000e+00
Cu 3.079613762520878151e+00 5.219727386579621209e-01 0.000000000000000000e+00
Cu 3.066730677848884312e+00 6.112319509758991076e-01 0.000000000000000000e+00
Cu 3.054964224304058451e+00 7.005989800045391291e-01 0.000000000000000000e+00
Cu 3.045093027948293063e+00 7.903048167901376431e-01 0.000000000000000000e+00
Cu 3.038034131466591514e+00 8.803799277089499054e-01 0.000000000000000000e+00
Cu 3.270531431555347091e+00 7.985514637908730506e-02 0.000000000000000000e+00
Cu 3.260794944217294322e+00 1.734055887098890081e-01 0.000000000000000000e+00
Cu 3.250748663096499680e+00 2.644893091588854661e-01 0.000000000000000000e+00
Cu 3.239853744881861175e+00 3.539017592962263037e-01 0.000000000000000000e+00
Cu 3.228045138883969489e+00 4.426468256165622117e-01 0.000000000000000000e+00
Cu 3.215754635808317552e+00 5.311277119137589597e-01 0.000000000000000000e+00
Cu 3.203456868705117255e+00 6.193141935539705489e-01 0.000000000000000000e+00
Cu 3.191671429454137066e+00 7.073453851063130626e-01 0.000000000000000000e+00
Cu 3.181365516245135083e+00 7.957072403345396561e-01 0.000000000000000000e+00
Cu 3.173906367832023179e+00 8.847217524271561162e-01 0.000000000000000000e+00
Cu 3.397396418654068828e+00 9.201959865565381702e-02 0.000000000000000000e+00
Cu 3.392430769965876891e+00 1.836329147954961216e-01 0.000000000000000000e+00
Cu 3.386472418332119538e+00 2.731516350097351054e-01 0.000000000000000000e+00
Cu 3.377955761905437893e+00 3.619201313493252692e-01 0.000000000000000000e+00
Cu 3.367328183726535418e+00 4.506514772163614513e-01 0.000000000000000000e+00
Cu 3.355808951744454482e+00 5.391419426503094581e-01 0.000000000000000000e+00
Cu 3.344029625559296726e+00 6.271977725129291859e-01 0.000000000000000000e+00
Cu 3.331978755212833487e+00 7.144510159756738421e-01 0.000000000000000000e+00
Cu 3.320346133776620690e+00 8.015430720655509766e-01 0.000000000000000000e+00
Cu 3.311292280155337941e+00 8.897264427181711399e-01 0.000000000000000000e+00
Cu 3.528618721540377479e+00 9.877456210955566640e-02 0.000000000000000000e+00
Cu 3.530376878234031235e+00 1.890079044614786929e-01 0.000000000000000000e+00
Cu 3.528163165941902601e+00 2.778493846979955828e-01 0.000000000000000000e+00
Cu 3.520323121608192718e+00 3.677512171561595489e-01 0.000000000000000000e+00
Cu 3.510377536769405449e+00 4.574628145955723646e-01 0.000000000000000000e+00
Cu 3.499321618719193339e+00 5.467006040040800485e-01 0.000000000000000000e+00
Cu 3.487790376082466892e+00 6.353821574146373274e-01 0.000000000000000000e+00
Cu 3.476169841017725304e+00 7.234409320899813922e-01 0.000000000000000000e+00
Cu 3.462224215751774192e+00 8.096047805494883676e-01 0.000000000000000000e+00
Cu 3.448657370221323681e+00 8.971872297355334425e-01 0.000000000000000000e+00
Cu 3.658618067978233412e+00 9.144288772273699573e-02 0.000000000000000000e+00
Cu 3.676974164862597760e+00 1.861728024737229759e-01 0.000000000000000000e+00
Cu 3.673674091858806001e+00 2.804168896140530887e-01 0.000000000000000000e+00
Cu 3.666559106331864104e+00 3.730155695301165530e-01 0.000000000000000000e+00
Cu 3.656813837836173420e+00 4.641702733003345016e-01 0.000000000000000000e+00
Cu 3.645986395981250183e+00 5.543316658320348589e-01 0.000000000000000000e+00
Cu 3.634691598432088000e+00 6.439059632812828005e-01 0.000000000000000000e+00
Cu 3.622520120530477339e+00 7.335164568038113897e-01 0.000000000000000000e+00
Cu 3.609711763774404947e+00 8.242555528390326236e-01 0.000000000000000000e+00
Cu 3.579835205595064185e+00 9.146596404546011305e-01 0.000000000000000000e+00
