200

Cu 0.000000000000000000e+00 -2.140592581328134691e-03 0.000000000000000000e+00
Cu 0.000000000000000000e+00 1.011145609560269304e-01 0.000000000000000000e+00
Cu 0.000000000000000000e+00 2.044409781631350009e-01 0.000000000000000000e+00
Cu 0.000000000000000000e+00 3.080429973421071055e-01 0.000000000000000000e+00
Cu 0.000000000000000000e+00 4.120127332084340122e-01 0.000000000000000000e+00
Cu 0.000000000000000000e+00 5.163801096982413297e-01 0.000000000000000000e+00
Cu 0.000000000000000000e+00 6.211610475829176803e-01 0.000000000000000000e+00
Cu 0.000000000000000000e+00 7.263715438778062250e-01 0.000000000000000000e+00
Cu 0.000000000000000000e+00 8.320142331275106606e-01 0.000000000000000000e+00
Cu 0.000000000000000000e+00 9.380422283268528005e-01 0.000000000000000000e+00
Cu 1.117929539410973117e-01 -3.196594482339745920e-04 0.000000000000000000e+00
Cu 1.103826499701878738e-01 1.019965275842899116e-01 0.000000000000000000e+00
Cu 1.093701378215842929e-01 2.050824094946791243e-01 0.000000000000000000e+00
Cu 1.083783575691050355e-01 3.086414940700437093e-01 0.000000000000000000e+00
Cu 1.073859105081967913e-01 4.126232304036854259e-01 0.000000000000000000e+00
Cu 1.063823862116285296e-01 5.170217158363497045e-01 0.000000000000000000e+00
Cu 1.053542250633959509e-01 6.218374671031653422e-01 0.000000000000000000e+00
Cu 1.042789628452783918e-01 7.270894872710217394e-01 0.000000000000000000e+00
Cu 1.031172526027513553e-01 8.328580054220532380e-01 0.000000000000000000e+00
Cu 1.016033741253556943e-01 9.394324222386001288e-01 0.000000000000000000e+00
Cu 2.233483644364940013e-01 1.855245588546956771e-03 0.000000000000000000e+00
Cu 2.209755842438700102e-01 1.041976283188415925e-01 0.000000000000000000e+00
Cu 2.187647980918039081e-01 2.070983127980327576e-01 0.000000000000000000e+00
Cu 2.167011444120700014e-01 3.106055323383963840e-01 0.000000000000000000e+00
Cu 2.146806137088025646e-01 4.146219928939878230e-01 0.000000000000000000e+00
Cu 2.126673700836042846e-01 5.190960504199837455e-01 0.000000000000000000e+00
Cu 2.106221160700526007e-01 6.240022908445436167e-01 0.000000000000000000e+00
Cu 2.084774427885822123e-01 7.293523670382078272e-01 0.000000000000000000e+00
Cu 2.060990774750642573e-01 8.352322305382818834e-01 0.000000000000000000e+00
Cu 2.034011095888790255e-01 9.416990781838660007e-01 0.000000000000000000e+00
Cu 3.346824334867494199e-01 4.987509836675688146e-03 0.000000000000000000e+00
Cu 3.313311017054088592e-01 1.074012973664969645e-01 0.000000000000000000e+00
Cu 3.280468208985727885e-01 2.103500826040954896e-01 0.000000000000000000e+00
Cu 3.248715306085008803e-01 3.138731124872676248e-01 0.000000000000000000e+00
Cu 3.217925407106021485e-01 4.179542844314572125e-01 0.000000000000000000e+00
Cu 3.187675453612380805e-01 5.225338088366519029e-01 0.000000000000000000e+00
Cu 3.157405384726389985e-01 6.275614788254697540e-01 0.000000000000000000e+00
Cu 3.126067738908069882e-01 7.330082303614365857e-01 0.000000000000000000e+00
Cu 3.092325477134312273e-01 8.388648156838983683e-01 0.000000000000000000e+00
Cu 3.054883107561611744e-01 9.451796623956730814e-01 0.000000000000000000e+00
Cu 4.457520583500228506e-01 9.146858635799949913e-03 0.000000000000000000e+00
Cu 4.413738394353033945e-01 1.116548493391967406e-01 0.000000000000000000e+00
Cu 4.370222613645827758e-01 2.147128750746649384e-01 0.000000000000000000e+00
Cu 4.327630492466765788e-01 3.183437002134400506e-01 0.000000000000000000e+00
Cu 4.286279558281841373e-01 4.225269651848787000e-01 0.000000000000000000e+00
Cu 4.246135866239960088e-01 5.272141967992399758e-01 0.000000000000000000e+00
Cu 4.206788948692219976e-01 6.323425092609227249e-01 0.000000000000000000e+00
Cu 4.167256276231514622e-01 7.378400744719155746e-01 0.000000000000000000e+00
Cu 4.125776934700938203e-01 8.436392381775179583e-01 0.000000000000000000e+00
Cu 4.080085446574747143e-01 9.497408016604466097e-01 0.000000000000000000e+00
Cu 5.565174842692386381e-01 1.437113078512558886e-02 0.000000000000000000e+00
Cu 5.510485373777248563e-01 1.169685086745542030e-01 0.000000000000000000e+00
Cu 5.455884135277876412e-01 2.201508789768053809e-01 0.000000000000000000e+00
Cu 5.402512871518949655e-01 3.239236016591999223e-01 0.000000000000000000e+00
Cu 5.351048908858840880e-01 4.282308650605432532e-01 0.000000000000000000e+00
Cu 5.301719500974546584e-01 5.329875791449129041e-01 0.000000000000000000e+00
Cu 5.254444779729519066e-01 6.381273335602358765e-01 0.000000000000000000e+00
Cu 5.208504467515613356e-01 7.435882105358717631e-01 0.000000000000000000e+00
Cu 5.161937453694419586e-01 8.492920504688810102e-01 0.000000000000000000e+00
Cu 5.111337134450700814e-01 9.551354847201128928e-01 0.000000000000000000e+00
Cu 6.669657049103275837e-01 2.072051745053260854e-02 0.000000000000000000e+00
Cu 6.603149046599341432e-01 1.233743437725188935e-01 0.000000000000000000e+00
Cu 6.536699305961787276e-01 2.266446856176736191e-01 0.000000000000000000e+00
Cu 6.472414621616811026e-01 3.305435070488983995e-01 0.000000000000000000e+00
Cu 6.411559891264310140e-01 4.349551428489215610e-01 0.000000000000000000e+00
Cu 6.354616158714891938e-01 5.397156139338781244e-01 0.000000000000000000e+00
Cu 6.301153567679822487e-01 6.446848176379247342e-01 0.000000000000000000e+00
Cu 6.250450652097992998e-01 7.499093572315476131e-01 0.000000000000000000e+00
Cu 6.201159686888866318e-01 8.553884229107654447e-01 0.000000000000000000e+00
Cu 6.150326124170787390e-01 9.609672973147531660e-01 0.000000000000000000e+00
Cu 7.770854238595503727e-01 2.830638284020594794e-02 0.000000000000000000e+00
Cu 7.691613638418917098e-01 1.309696606438832955e-01 0.000000000000000000e+00
Cu 7.612300348136925576e-01 2.342230364965698364e-01 0.000000000000000000e+00
Cu 7.536474801885159058e-01 3.381365652023650692e-01 0.000000000000000000e+00
Cu 7.467291954262820219e-01 4.425904383794432850e-01 0.000000000000000000e+00
Cu 7.405342566356007961e-01 5.472154497100855108e-01 0.000000000000000000e+00
Cu 7.349285614430185465e-01 6.518353694790935959e-01 0.000000000000000000e+00
Cu 7.294840259000965332e-01 7.564341010987936098e-01 0.000000000000000000e+00
Cu 7.244103975665441286e-01 8.614259935123019796e-01 0.000000000000000000e+00
Cu 7.198743808293618374e-01 9.663471838530488522e-01 0.000000000000000000e+00
Cu 8.868196810223524240e-01 3.723955457440142336e-02 0.000000000000000000e+00
Cu 8.775682220778738829e-01 1.399255349542717353e-01 0.000000000000000000e+00
Cu 8.683095814297010495e-01 2.430580392748839802e-01 0.000000000000000000e+00
Cu 8.594468597912412466e-01 3.467034575956323694e-01 0.000000000000000000e+00
Cu 8.517243342650386850e-01 4.509370977846923201e-01 0.000000000000000000e+00
Cu 8.456285841114713486e-01 5.552340411777187956e-01 0.000000000000000000e+00
Cu 8.400849795415267218e-01 6.590850332102331510e-01 0.000000000000000000e+00
Cu 8.343949885252952559e-01 7.635114061086586412e-01 0.000000000000000000e+00
Cu 2.030351465820869006e+00 7.165877301132677069e-01 0.000000000000000000e+00
Cu 2.013132581325890236e+00 8.200425988124930843e-01 0.000000000000000000e+00
Cu 9.960739236862858892e-01 4.765027626809542616e-02 0.000000000000000000e+00
Cu 9.853906974899666604e-01 1.503518788695716035e-01 0.000000000000000000e+00
Cu 9.749144735480318458e-01 2.535292138219074065e-01 0.000000000000000000e+00
Cu 9.648471738171011669e-01 3.566440988112524746e-01 0.000000000000000000e+00
Cu 9.561729632347756302e-01 4.597997189854849953e-01 0.000000000000000000e+00
Cu 9.514304000937927608e-01 5.624675255099870208e-01 0.000000000000000000e+00
Cu 9.456437336978990027e-01 6.664224256333838303e-01 0.000000000000000000e+00
Cu 2.157281600413458733e+00 6.320803539508722535e-01 0.000000000000000000e+00
Cu 2.138363130021299519e+00 7.341284714744321649e-01 0.000000000000000000e+00
Cu 2.123052882845104516e+00 8.349765640964942337e-01 0.000000000000000000e+00
Cu 1.104664448425045631e+00 5.960616481323965238e-02 0.000000000000000000e+00
Cu 1.092489846801755649e+00 1.624685316017185632e-01 0.000000000000000000e+00
Cu 1.080537853519681235e+00 2.655834196810324954e-01 0.000000000000000000e+00
Cu 1.069766271349799736e+00 3.693661035591732089e-01 0.000000000000000000e+00
Cu 2.330315820338671351e+00 3.445601815042800276e-01 0.000000000000000000e+00
Cu 2.302003788064700185e+00 4.452868128531867198e-01 0.000000000000000000e+00
Cu 2.286833827332161562e+00 5.485489858742760294e-01 0.000000000000000000e+00
Cu 2.266969097901034846e+00 6.494410707906008717e-01 0.000000000000000000e+00
Cu 2.251159311615891667e+00 7.492138089133083545e-01 0.000000000000000000e+00
Cu 2.238305256393397169e+00 8.479788848252095557e-01 0.000000000000000000e+00
Cu 1.212448455627927579e+00 7.340125124205394702e-02 0.000000000000000000e+00
Cu 1.198412352926503832e+00 1.762472536141590773e-01 0.000000000000000000e+00
Cu 1.185291332028577171e+00 2.799534970081202223e-01 0.000000000000000000e+00
Cu 2.461969700894153235e+00 2.665328964412091439e-01 0.000000000000000000e+00
Cu 2.436607562210299172e+00 3.674470841383835618e-01 0.000000000000000000e+00
Cu 2.418700139881627909e+00 4.670004801883564372e-01 0.000000000000000000e+00
Cu 2.397579758146285656e+00 5.648634041740370204e-01 0.000000000000000000e+00
Cu 2.382030507165361577e+00 6.640141812329802828e-01 0.000000000000000000e+00
Cu 2.368620066811764069e+00 7.616294603127790053e-01 0.000000000000000000e+00
Cu 2.358104146851879523e+00 8.584264565911436939e-01 0.000000000000000000e+00
Cu 1.319013811641213341e+00 8.897558390960742802e-02 0.000000000000000000e+00
Cu 1.303211368708623752e+00 1.923880102953836047e-01 0.000000000000000000e+00
Cu 2.596891014074216297e+00 1.904797368546133907e-01 0.000000000000000000e+00
Cu 2.571089487390383344e+00 2.895692490092087179e-01 0.000000000000000000e+00
Cu 2.550423957669281538e+00 3.870905507899834452e-01 0.000000000000000000e+00
Cu 2.532383494355119780e+00 4.841476054954680364e-01 0.000000000000000000e+00
Cu 2.515925791686960622e+00 5.806134545233565536e-01 0.000000000000000000e+00
Cu 2.501750370425055436e+00 6.760539906615194994e-01 0.000000000000000000e+00
Cu 2.490509929244460352e+00 7.715443273119192424e-01 0.000000000000000000e+00
Cu 2.481832651994350325e+00 8.665000569863351432e-01 0.000000000000000000e+00
Cu 1.424254598945361661e+00 1.075339994897626245e-01 0.000000000000000000e+00
Cu 2.732178842187224177e+00 1.161910862682469792e-01 0.000000000000000000e+00
Cu 2.707484999975027673e+00 2.142582290597108696e-01 0.000000000000000000e+00
Cu 2.686941476574547405e+00 3.101665176537191648e-01 0.000000000000000000e+00
Cu 2.669041947550809812e+00 4.047530708271848687e-01 0.000000000000000000e+00
Cu 2.653069938765363123e+00 4.988524037426059765e-01 0.000000000000000000e+00
Cu 2.638814383236194328e+00 5.925924053063807984e-01 0.000000000000000000e+00
Cu 2.626440066970386233e+00 6.860299511466436684e-01 0.000000000000000000e+00
Cu 2.616367171794045543e+00 7.793370981516497542e-01 0.000000000000000000e+00
Cu 2.609048522276487869e+00 8.725976802321913084e-01 0.000000000000000000e+00
Cu 2.864671467298344432e+00 4.150710423485331341e-02 0.000000000000000000e+00
Cu 2.843854403482667159e+00 1.394259178233971663e-01 0.000000000000000000e+00
Cu 2.825256902132942560e+00 2.342833334452894267e-01 0.000000000000000000e+00
Cu 2.808640538368904149e+00 3.273523674308957965e-01 0.000000000000000000e+00
Cu 2.793448441229089863e+00 4.194313148523388102e-01 0.000000000000000000e+00
Cu 2.779371701536138772e+00 5.110071653259885549e-01 0.000000000000000000e+00
Cu 2.766496690781949930e+00 6.024213059290304262e-01 0.000000000000000000e+00
Cu 2.755156850950639225e+00 6.938678387030394745e-01 0.000000000000000000e+00
Cu 2.745890297559476778e+00 7.854663759735472928e-01 0.000000000000000000e+00
Cu 2.739326548286733054e+00 8.772020604057958471e-01 0.000000000000000000e+00
Cu 2.976988065870532107e+00 6.092562368813923823e-02 0.000000000000000000e+00
Cu 2.962940930264820416e+00 1.569142481101851450e-01 0.000000000000000000e+00
Cu 2.949228710815322785e+00 2.498817265662461873e-01 0.000000000000000000e+00
Cu 2.936042104027313471e+00 3.409928500798417583e-01 0.000000000000000000e+00
Cu 2.923177983526957568e+00 4.311720761631015475e-01 0.000000000000000000e+00
Cu 2.910608097082182599e+00 5.209474474500010999e-01 0.000000000000000000e+00
Cu 2.898596224323424675e+00 6.105852784667837874e-01 0.000000000000000000e+00
Cu 2.887676492729560174e+00 7.003297067412578292e-01 0.000000000000000000e+00
Cu 2.878604223928855621e+00 7.904155073852282554e-01 0.000000000000000000e+00
Cu 2.872272307013594261e+00 8.808806042370922462e-01 0.000000000000000000e+00
Cu 3.097338928346315079e+00 7.625899326916577015e-02 0.000000000000000000e+00
Cu 3.088215075936033394e+00 1.700667336808090457e-01 0.000000000000000000e+00
Cu 3.078850462978639069e+00 2.614732560687774710e-01 0.000000000000000000e+00
Cu 3.068704780817125943e+00 3.512445020007790020e-01 0.000000000000000000e+00
Cu 3.057699389917856614e+00 4.403631992150108254e-01 0.000000000000000000e+00
Cu 3.046239637636368514e+00 5.292212585447618745e-01 0.000000000000000000e+00
Cu 3.034770346126322238e+00 6.177851854021851885e-01 0.000000000000000000e+00
Cu 3.023781024904494075e+00 7.061926935981607256e-01 0.000000000000000000e+00
Cu 3.014210453696374969e+00 7.949315253522771796e-01 0.000000000000000000e+00
Cu 3.007397057255469353e+00 8.843335811384114287e-01 0.000000000000000000e+00
Cu 3.223932508104854211e+00 8.770173858479493600e-02 0.000000000000000000e+00
Cu 3.219455790213391566e+00 1.795799334848813544e-01 0.000000000000000000e+00
Cu 3.214088866081492135e+00 2.694121385358457799e-01 0.000000000000000000e+00
Cu 3.206268457263147020e+00 3.585256306326680686e-01 0.000000000000000000e+00
Cu 3.196415496991821481e+00 4.476182863610579932e-01 0.000000000000000000e+00
Cu 3.185704268193783939e+00 5.364790387199814825e-01 0.000000000000000000e+00
Cu 3.174727579248096454e+00 6.249075584282801632e-01 0.000000000000000000e+00
Cu 3.163445780621328307e+00 7.125401026448247022e-01 0.000000000000000000e+00
Cu 3.152504406437761197e+00 8.000084297136824674e-01 0.000000000000000000e+00
Cu 3.144025741870483337e+00 8.885721503866390591e-01 0.000000000000000000e+00
Cu 3.354726177033913181e+00 9.389115763908821577e-02 0.000000000000000000e+00
Cu 3.356859675339505689e+00 1.843878897889605906e-01 0.000000000000000000e+00
Cu 3.355151698270534499e+00 2.735256379398969262e-01 0.000000000000000000e+00
Cu 3.347995068365882787e+00 3.637409334516122361e-01 0.000000000000000000e+00
Cu 3.338809398825093311e+00 4.537893844214895833e-01 0.000000000000000000e+00
Cu 3.328552432823188134e+00 5.433858494461596411e-01 0.000000000000000000e+00
Cu 3.317820230041061969e+00 6.324423227293050065e-01 0.000000000000000000e+00
Cu 3.306947638217167196e+00 7.208769314167976505e-01 0.000000000000000000e+00
Cu 3.293705146813031615e+00 8.074460232664885107e-01 0.000000000000000000e+00
Cu 3.280667175709601757e+00 8.953957824513710806e-01 0.000000000000000000e+00
Cu 3.484232693163385353e+00 8.625896897063729807e-02 0.000000000000000000e+00
Cu 3.502668836443994405e+00 1.811654472550911776e-01 0.000000000000000000e+00
Cu 3.499936411549741333e+00 2.756206900215498745e-01 0.000000000000000000e+00
Cu 3.493493689073070563e+00 3.684733328140663566e-01 0.000000000000000000e+00
Cu 3.484513471701581544e+00 4.599350072856857596e-01 0.000000000000000000e+00
Cu 3.474484848245063429e+00 5.504445272961239199e-01 0.000000000000000000e+00
Cu 3.463983836331130828e+00 6.403990471111465910e-01 0.000000000000000000e+00
Cu 3.452585017436407888e+00 7.304114205992916498e-01 0.000000000000000000e+00
Cu 3.440440502005993828e+00 8.215270600322981398e-01 0.000000000000000000e+00
Cu 3.411348410953327193e+00 9.123753935919374225e-01 0.000000000000000000e+00
