200

Cu 0.000000000000000000e+00 5.343419590909385258e-02 0.000000000000000000e+00
Cu 0.000000000000000000e+00 1.454544477318261975e-01 0.000000000000000000e+00
Cu 0.000000000000000000e+00 2.353075903514328937e-01 0.000000000000000000e+00
Cu 0.000000000000000000e+00 3.244844566959664833e-01 0.000000000000000000e+00
Cu 0.000000000000000000e+00 4.139013744231553327e-01 0.000000000000000000e+00
Cu 0.000000000000000000e+00 5.041258830393278156e-01 0.000000000000000000e+00
Cu 0.000000000000000000e+00 5.955721955508160859e-01 0.000000000000000000e+00
Cu 0.000000000000000000e+00 6.885521777101815122e-01 0.000000000000000000e+00
Cu 0.000000000000000000e+00 7.833859316168363396e-01 0.000000000000000000e+00
Cu 0.000000000000000000e+00 8.804607845407192990e-01 0.000000000000000000e+00
Cu 1.399483526393216493e-01 5.939338446782921332e-02 0.000000000000000000e+00
Cu 1.379684471062530005e-01 1.471413264884730843e-01 0.000000000000000000e+00
Cu 1.369640461172481893e-01 2.355830640008491350e-01 0.000000000000000000e+00
Cu 1.355728412170444375e-01 3.241807679596367953e-01 0.000000000000000000e+00
Cu 1.339071547524265104e-01 4.132777981408103374e-01 0.000000000000000000e+00
Cu 1.320409702570582988e-01 5.033208532909396737e-01 0.000000000000000000e+00
Cu 1.300817151994477783e-01 5.946663786836692278e-01 0.000000000000000000e+00
Cu 1.281743244094301071e-01 6.875328755180085682e-01 0.000000000000000000e+00
Cu 1.265202394637192362e-01 7.818091736550284443e-01 0.000000000000000000e+00
Cu 1.265000624352763392e-01 8.764559434349696865e-01 0.000000000000000000e+00
Cu 2.794815875901561775e-01 6.231871743954649906e-02 0.000000000000000000e+00
Cu 2.771178196602958610e-01 1.495324897617294480e-01 0.000000000000000000e+00
Cu 2.743937684914347086e-01 2.367884202433897523e-01 0.000000000000000000e+00
Cu 2.713793762087763906e-01 3.246407658808108665e-01 0.000000000000000000e+00
Cu 2.678686079826378963e-01 4.132804348254199844e-01 0.000000000000000000e+00
Cu 2.639979030757546030e-01 5.030397238992639908e-01 0.000000000000000000e+00
Cu 2.599674162096413110e-01 5.942026568694520616e-01 0.000000000000000000e+00
Cu 2.560853696450836048e-01 6.868759686972368828e-01 0.000000000000000000e+00
Cu 2.529977707507181650e-01 7.808610613746373996e-01 0.000000000000000000e+00
Cu 2.512193934446508847e-01 8.760560180740718517e-01 0.000000000000000000e+00
Cu 4.192232744679764145e-01 6.480400536754860052e-02 0.000000000000000000e+00
Cu 4.162575992770303768e-01 1.517717654382819692e-01 0.000000000000000000e+00
Cu 4.122103400870466561e-01 2.385654355897208201e-01 0.000000000000000000e+00
Cu 4.073493601462667701e-01 3.258269804079815257e-01 0.000000000000000000e+00
Cu 4.017873932402042381e-01 4.140327878587734545e-01 0.000000000000000000e+00
Cu 3.956721729458723136e-01 5.035377055693581738e-01 0.000000000000000000e+00
Cu 3.893082132552038721e-01 5.946183860667171306e-01 0.000000000000000000e+00
Cu 3.831465712967515591e-01 6.873865843286119937e-01 0.000000000000000000e+00
Cu 3.777178342170665060e-01 7.818954687213685029e-01 0.000000000000000000e+00
Cu 3.735821730657455375e-01 8.781513498104616122e-01 0.000000000000000000e+00
Cu 5.592642968760883626e-01 6.764486308037408191e-02 0.000000000000000000e+00
Cu 5.554936474444129857e-01 1.544467979605334829e-01 0.000000000000000000e+00
Cu 5.500907519578115412e-01 2.409776009538687203e-01 0.000000000000000000e+00
Cu 5.433353358175875281e-01 3.279055812534078518e-01 0.000000000000000000e+00
Cu 5.354568373409082094e-01 4.158431046067480041e-01 0.000000000000000000e+00
Cu 5.267274430443367184e-01 5.052940854257716996e-01 0.000000000000000000e+00
Cu 5.175489368717680616e-01 5.966199451714259139e-01 0.000000000000000000e+00
Cu 5.084327068026729401e-01 6.900214187420474765e-01 0.000000000000000000e+00
Cu 4.999120641189711001e-01 7.855393854878224280e-01 0.000000000000000000e+00
Cu 4.926553432037862335e-01 8.831824400051175861e-01 0.000000000000000000e+00
Cu 6.996025823063609650e-01 7.138863066021489123e-02 0.000000000000000000e+00
Cu 6.948550600391544263e-01 1.580784033716811088e-01 0.000000000000000000e+00
Cu 6.879389303056435701e-01 2.444655923785263585e-01 0.000000000000000000e+00
Cu 6.790633794414575597e-01 3.312622304921668537e-01 0.000000000000000000e+00
Cu 6.685133353513820209e-01 4.192346847062439208e-01 0.000000000000000000e+00
Cu 6.566439960220255001e-01 5.090389472631923207e-01 0.000000000000000000e+00
Cu 6.439075716826735407e-01 6.011189231234427277e-01 0.000000000000000000e+00
Cu 6.310021247103150266e-01 6.957326939558241552e-01 0.000000000000000000e+00
Cu 6.187097256110906107e-01 7.927796511446846273e-01 0.000000000000000000e+00
Cu 6.075645371825536545e-01 8.920505326335326224e-01 0.000000000000000000e+00
Cu 8.400921237085636761e-01 7.639201327822446597e-02 0.000000000000000000e+00
Cu 8.341121561153728159e-01 1.630567804345277871e-01 0.000000000000000000e+00
Cu 8.254179982409544092e-01 2.494855689953190403e-01 0.000000000000000000e+00
Cu 8.140672322190629639e-01 3.364127802229125996e-01 0.000000000000000000e+00
Cu 8.003047536930921746e-01 4.248515890821764618e-01 0.000000000000000000e+00
Cu 7.844781894232533137e-01 5.157193349484490152e-01 0.000000000000000000e+00
Cu 7.672961705292768997e-01 6.094022558682642421e-01 0.000000000000000000e+00
Cu 7.496657611769962370e-01 7.056386464306190209e-01 0.000000000000000000e+00
Cu 7.329804861165361007e-01 8.045398457695936978e-01 0.000000000000000000e+00
Cu 7.179398712821533080e-01 9.055540649588995628e-01 0.000000000000000000e+00
Cu 9.802881783259834725e-01 8.281395028368271349e-02 0.000000000000000000e+00
Cu 9.727461055516106736e-01 1.696513047423137688e-01 0.000000000000000000e+00
Cu 9.619511258015460697e-01 2.563326336671752359e-01 0.000000000000000000e+00
Cu 9.475538603107844793e-01 3.438333793870465005e-01 0.000000000000000000e+00
Cu 9.294745365730201492e-01 4.336669811813246844e-01 0.000000000000000000e+00
Cu 9.084538788884037874e-01 5.268187985847796462e-01 0.000000000000000000e+00
Cu 8.858280060193419736e-01 6.230743450108006121e-01 0.000000000000000000e+00
Cu 8.634403863403341539e-01 7.215271251817947373e-01 0.000000000000000000e+00
Cu 8.417476149068433555e-01 8.209926408561832867e-01 0.000000000000000000e+00
Cu 8.247453506588373617e-01 9.225924534491284357e-01 0.000000000000000000e+00
Cu 1.119996848877914175e+00 9.099969491422392476e-02 0.000000000000000000e+00
Cu 1.110618714901796755e+00 1.776298583453413682e-01 0.000000000000000000e+00
Cu 1.097320191680579482e+00 2.650855997933810881e-01 0.000000000000000000e+00
Cu 1.078517535096906066e+00 3.545891595449032763e-01 0.000000000000000000e+00
Cu 1.054136364666294901e+00 4.474950951218276129e-01 0.000000000000000000e+00
Cu 1.025860663859940569e+00 5.442378900980286982e-01 0.000000000000000000e+00
Cu 9.975403339790954726e-01 6.436898090610729817e-01 0.000000000000000000e+00
Cu 9.710029349450221003e-01 7.439049344007596654e-01 0.000000000000000000e+00
Cu 1.355873142432614253e+00 7.870401472943029386e-01 0.000000000000000000e+00
Cu 1.350836661033787189e+00 8.906852636127680078e-01 0.000000000000000000e+00
Cu 1.258268101248648962e+00 9.971299996426667700e-02 0.000000000000000000e+00
Cu 1.248202994710898572e+00 1.875055245715526731e-01 0.000000000000000000e+00
Cu 1.230272517632537976e+00 2.759325470192618979e-01 0.000000000000000000e+00
Cu 1.206170785715136029e+00 3.703033046674800710e-01 0.000000000000000000e+00
Cu 1.171854302961457206e+00 4.678254130546718459e-01 0.000000000000000000e+00
Cu 1.132726334882538266e+00 5.700073101678824194e-01 0.000000000000000000e+00
Cu 1.102721359881699836e+00 6.705570204903014142e-01 0.000000000000000000e+00
Cu 1.471258114069415424e+00 6.939245417871194865e-01 0.000000000000000000e+00
Cu 1.465973460330444844e+00 7.951919276622340105e-01 0.000000000000000000e+00
Cu 1.462186985564919439e+00 8.950013093315259960e-01 0.000000000000000000e+00
Cu 1.394044362191169117e+00 1.079521470314766945e-01 0.000000000000000000e+00
Cu 1.381712798984779722e+00 1.996580149218458444e-01 0.000000000000000000e+00
Cu 1.361435436119809994e+00 2.926311614879114065e-01 0.000000000000000000e+00
Cu 1.326723581853634260e+00 3.855372198909165493e-01 0.000000000000000000e+00
Cu 1.577679005137131885e+00 4.192052043832632524e-01 0.000000000000000000e+00
Cu 1.566492972979958820e+00 5.150450089538013421e-01 0.000000000000000000e+00
Cu 1.587412201096639386e+00 6.066585877811001559e-01 0.000000000000000000e+00
Cu 1.582979235849077737e+00 7.026912688096890180e-01 0.000000000000000000e+00
Cu 1.580629627071787224e+00 7.990636096514053266e-01 0.000000000000000000e+00
Cu 1.579521719852967854e+00 8.965045139742890967e-01 0.000000000000000000e+00
Cu 1.524523367007506680e+00 1.190429105647487357e-01 0.000000000000000000e+00
Cu 1.510819555071487352e+00 2.140887254936912898e-01 0.000000000000000000e+00
Cu 1.484816635263475959e+00 3.103680606164054834e-01 0.000000000000000000e+00
Cu 1.682797190070910220e+00 3.149235514635970179e-01 0.000000000000000000e+00
Cu 1.689027061682273789e+00 4.172361808747937495e-01 0.000000000000000000e+00
Cu 1.699982087871361180e+00 5.121859049375080408e-01 0.000000000000000000e+00
Cu 1.697023517851911523e+00 6.055188378541936922e-01 0.000000000000000000e+00
Cu 1.699766460794600809e+00 7.024276798460628024e-01 0.000000000000000000e+00
Cu 1.699684499651038960e+00 7.982806728701877796e-01 0.000000000000000000e+00
Cu 1.700779094248401124e+00 8.940402414217785143e-01 0.000000000000000000e+00
Cu 1.646561642767230715e+00 1.294687203956774446e-01 0.000000000000000000e+00
Cu 1.646921714126520886e+00 2.304249570045731332e-01 0.000000000000000000e+00
Cu 1.799899273392919552e+00 2.271807585461893542e-01 0.000000000000000000e+00
Cu 1.806012313432820093e+00 3.239988035050786475e-01 0.000000000000000000e+00
Cu 1.806746113018519173e+00 4.146623850851010595e-01 0.000000000000000000e+00
Cu 1.814705515016429738e+00 5.101944422523315703e-01 0.000000000000000000e+00
Cu 1.818042084816564374e+00 6.051332307267448529e-01 0.000000000000000000e+00
Cu 1.819463638662044858e+00 6.987413009973437727e-01 0.000000000000000000e+00
Cu 1.821818305014885730e+00 7.936523373768517020e-01 0.000000000000000000e+00
Cu 1.824662664782590316e+00 8.884237452107150990e-01 0.000000000000000000e+00
Cu 1.783146192285439469e+00 1.457941065223324895e-01 0.000000000000000000e+00
Cu 1.933300991370319188e+00 1.428802459968696037e-01 0.000000000000000000e+00
Cu 1.932308703458854637e+00 2.365685696364748514e-01 0.000000000000000000e+00
Cu 1.930828027268405744e+00 3.283394748178348754e-01 0.000000000000000000e+00
Cu 1.934130200137898825e+00 4.195355950753202334e-01 0.000000000000000000e+00
Cu 1.937101939758361757e+00 5.094058271314488850e-01 0.000000000000000000e+00
Cu 1.941614146942498786e+00 6.015642296224302799e-01 0.000000000000000000e+00
Cu 1.944449433954009709e+00 6.945330312517102866e-01 0.000000000000000000e+00
Cu 1.946916263574093309e+00 7.876020118396899194e-01 0.000000000000000000e+00
Cu 1.950518055416915253e+00 8.811021311939787326e-01 0.000000000000000000e+00
Cu 2.074706429856941536e+00 5.714205265557152635e-02 0.000000000000000000e+00
Cu 2.067466114067900040e+00 1.535798635475241203e-01 0.000000000000000000e+00
Cu 2.060475971254997596e+00 2.433091618340814666e-01 0.000000000000000000e+00
Cu 2.061577216481929486e+00 3.326876500826255745e-01 0.000000000000000000e+00
Cu 2.064188414057322341e+00 4.210640274603079103e-01 0.000000000000000000e+00
Cu 2.067263733666524050e+00 5.092681629653118547e-01 0.000000000000000000e+00
Cu 2.070159490978920047e+00 5.988844047392560821e-01 0.000000000000000000e+00
Cu 2.073018530942035920e+00 6.900380507121426366e-01 0.000000000000000000e+00
Cu 2.075454156325422073e+00 7.816764063582725131e-01 0.000000000000000000e+00
Cu 2.078546985030852667e+00 8.738157749027712917e-01 0.000000000000000000e+00
Cu 2.196614280397464203e+00 6.371535493115526583e-02 0.000000000000000000e+00
Cu 2.194802850626218937e+00 1.564190524076803923e-01 0.000000000000000000e+00
Cu 2.193981649386355315e+00 2.460435700732285513e-01 0.000000000000000000e+00
Cu 2.194611803020696250e+00 3.327399636162091112e-01 0.000000000000000000e+00
Cu 2.198304719856914335e+00 4.203473402604357978e-01 0.000000000000000000e+00
Cu 2.200950276104612691e+00 5.080132983321734574e-01 0.000000000000000000e+00
Cu 2.203390460389920591e+00 5.966011148169801936e-01 0.000000000000000000e+00
Cu 2.205280023782022258e+00 6.861892706522972896e-01 0.000000000000000000e+00
Cu 2.206866507067396732e+00 7.764834309807231438e-01 0.000000000000000000e+00
Cu 2.208980058306857508e+00 8.675630183725068223e-01 0.000000000000000000e+00
Cu 2.323072678716231909e+00 6.711754772670296132e-02 0.000000000000000000e+00
Cu 2.325048790057305137e+00 1.577555805186950655e-01 0.000000000000000000e+00
Cu 2.327557758463454807e+00 2.452472641189062941e-01 0.000000000000000000e+00
Cu 2.330935518801074746e+00 3.315341881782222777e-01 0.000000000000000000e+00
Cu 2.334698198801616886e+00 4.185519358501283982e-01 0.000000000000000000e+00
Cu 2.337970962737690783e+00 5.065506916912598800e-01 0.000000000000000000e+00
Cu 2.339913914738606326e+00 5.947170838498132550e-01 0.000000000000000000e+00
Cu 2.340775654581243259e+00 6.832955676558674085e-01 0.000000000000000000e+00
Cu 2.340948873911975703e+00 7.725466191146495021e-01 0.000000000000000000e+00
Cu 2.341563451376465377e+00 8.627994580469623420e-01 0.000000000000000000e+00
Cu 2.454585482242025662e+00 6.686175697397785112e-02 0.000000000000000000e+00
Cu 2.459418159382976921e+00 1.562824442654488499e-01 0.000000000000000000e+00
Cu 2.465144694939620074e+00 2.433760942392176885e-01 0.000000000000000000e+00
Cu 2.470072666259189642e+00 3.298150420742864686e-01 0.000000000000000000e+00
Cu 2.474189708125588805e+00 4.171828369613626020e-01 0.000000000000000000e+00
Cu 2.477541876646216501e+00 5.054110554460717886e-01 0.000000000000000000e+00
Cu 2.479465524366919471e+00 5.938926040267229478e-01 0.000000000000000000e+00
Cu 2.479356682895379915e+00 6.820733097223005137e-01 0.000000000000000000e+00
Cu 2.477494364423709960e+00 7.704366615612776581e-01 0.000000000000000000e+00
Cu 2.475742308064306840e+00 8.601198371387959174e-01 0.000000000000000000e+00
Cu 2.588547913209651163e+00 6.366785584191414493e-02 0.000000000000000000e+00
Cu 2.598113415688789285e+00 1.522645361163725564e-01 0.000000000000000000e+00
Cu 2.606781663583255693e+00 2.390486011874508321e-01 0.000000000000000000e+00
Cu 2.612142382914299787e+00 3.271167640641060581e-01 0.000000000000000000e+00
Cu 2.616446993245224117e+00 4.156419625187143252e-01 0.000000000000000000e+00
Cu 2.619636572738250901e+00 5.046933293549875632e-01 0.000000000000000000e+00
Cu 2.621385484209190153e+00 5.940950797247139814e-01 0.000000000000000000e+00
Cu 2.621263376485025276e+00 6.834548187157708510e-01 0.000000000000000000e+00
Cu 2.616842598178156010e+00 7.715718886161097023e-01 0.000000000000000000e+00
Cu 2.610156460798437550e+00 8.609734484272301147e-01 0.000000000000000000e+00
Cu 2.717835514567332300e+00 4.989325550408328647e-02 0.000000000000000000e+00
Cu 2.742400059211207886e+00 1.417827802804392523e-01 0.000000000000000000e+00
Cu 2.750243163152316761e+00 2.331792224588531415e-01 0.000000000000000000e+00
Cu 2.756384220520222250e+00 3.234046439865638223e-01 0.000000000000000000e+00
Cu 2.760726361341919954e+00 4.133840014362850646e-01 0.000000000000000000e+00
Cu 2.763831214183992024e+00 5.036598209730076547e-01 0.000000000000000000e+00
Cu 2.765484368181267527e+00 5.945056495482649028e-01 0.000000000000000000e+00
Cu 2.764762230052604242e+00 6.862607431072202946e-01 0.000000000000000000e+00
Cu 2.761242067702378566e+00 7.793649296057911791e-01 0.000000000000000000e+00
Cu 2.739804235224530871e+00 8.729361328292932765e-01 0.000000000000000000e+00
