200

Cu 0.000000000000000000e+00 9.390466962960612382e-03 0.000000000000000000e+00
Cu 0.000000000000000000e+00 1.079773290658443269e-01 0.000000000000000000e+00
Cu 0.000000000000000000e+00 2.056697719361235133e-01 0.000000000000000000e+00
Cu 0.000000000000000000e+00 3.032071764327188834e-01 0.000000000000000000e+00
Cu 0.000000000000000000e+00 4.010653568156857807e-01 0.000000000000000000e+00
Cu 0.000000000000000000e+00 4.995537088861023434e-01 0.000000000000000000e+00
Cu 0.000000000000000000e+00 5.989229012108768790e-01 0.000000000000000000e+00
Cu 0.000000000000000000e+00 6.993903820647112690e-01 0.000000000000000000e+00
Cu 0.000000000000000000e+00 8.011592969820707788e-01 0.000000000000000000e+00
Cu 0.000000000000000000e+00 9.044060416504783317e-01 0.000000000000000000e+00
Cu 1.232645809634935197e-01 1.326617010482629422e-02 0.000000000000000000e+00
Cu 1.212779785660388493e-01 1.094735545597688153e-01 0.000000000000000000e+00
Cu 1.200734009644817829e-01 2.064886334235769838e-01 0.000000000000000000e+00
Cu 1.187412126291638725e-01 3.038500417967398004e-01 0.000000000000000000e+00
Cu 1.172631994485083401e-01 4.016763099962269989e-01 0.000000000000000000e+00
Cu 1.156370018348138184e-01 5.001888186846337181e-01 0.000000000000000000e+00
Cu 1.138732704273194563e-01 5.995945549597702096e-01 0.000000000000000000e+00
Cu 1.119900166413499570e-01 7.000783456550955242e-01 0.000000000000000000e+00
Cu 1.100296484387279922e-01 8.017792762076073609e-01 0.000000000000000000e+00
Cu 1.082375835785310408e-01 9.046999081634761186e-01 0.000000000000000000e+00
Cu 2.460072286221041127e-01 1.638809680320543749e-02 0.000000000000000000e+00
Cu 2.430952620667442277e-01 1.125723171789321381e-01 0.000000000000000000e+00
Cu 2.402369997711528427e-01 2.091133510993634370e-01 0.000000000000000000e+00
Cu 2.373938965578056559e-01 3.063072742664231796e-01 0.000000000000000000e+00
Cu 2.343380457317104371e-01 4.041588015918868293e-01 0.000000000000000000e+00
Cu 2.310410642762843747e-01 5.027816175432333612e-01 0.000000000000000000e+00
Cu 2.275093043114526925e-01 6.023138512762415964e-01 0.000000000000000000e+00
Cu 2.237707041828324028e-01 7.028795019286733226e-01 0.000000000000000000e+00
Cu 2.199074733222957101e-01 8.045852904234155334e-01 0.000000000000000000e+00
Cu 2.159666039660986803e-01 9.076354776275339376e-01 0.000000000000000000e+00
Cu 3.683639962183657413e-01 2.026947003918887213e-02 0.000000000000000000e+00
Cu 3.644187920963123384e-01 1.166371635681958396e-01 0.000000000000000000e+00
Cu 3.601720597725910911e-01 2.132990019781993984e-01 0.000000000000000000e+00
Cu 3.556982477129785325e-01 3.105397180518380540e-01 0.000000000000000000e+00
Cu 3.509676212727191880e-01 4.085338931197582957e-01 0.000000000000000000e+00
Cu 3.459383649971646268e-01 5.073720128597289936e-01 0.000000000000000000e+00
Cu 3.406250226686363680e-01 6.071437771253150872e-01 0.000000000000000000e+00
Cu 3.350501176575739204e-01 7.079233191476218545e-01 0.000000000000000000e+00
Cu 3.292096409045054961e-01 8.098211106449241248e-01 0.000000000000000000e+00
Cu 3.230655198855499344e-01 9.130395426048423246e-01 0.000000000000000000e+00
Cu 4.902170925167577686e-01 2.527829730836672617e-02 0.000000000000000000e+00
Cu 4.850586472760702872e-01 1.219289920205536559e-01 0.000000000000000000e+00
Cu 4.793921025219614052e-01 2.189308669021828579e-01 0.000000000000000000e+00
Cu 4.733043719315652709e-01 3.165079145297926555e-01 0.000000000000000000e+00
Cu 4.668390794039890546e-01 4.148273798543691271e-01 0.000000000000000000e+00
Cu 4.600202241538608461e-01 5.140044259431757467e-01 0.000000000000000000e+00
Cu 4.528934381358433181e-01 6.141314033257763150e-01 0.000000000000000000e+00
Cu 4.454866814104809780e-01 7.152764774406513704e-01 0.000000000000000000e+00
Cu 4.377224580773746432e-01 8.174839745847858330e-01 0.000000000000000000e+00
Cu 4.294457347915667245e-01 9.208895687108606953e-01 0.000000000000000000e+00
Cu 6.114022326685882858e-01 3.166166976439211550e-02 0.000000000000000000e+00
Cu 6.048191829908612371e-01 1.286600607229483884e-01 0.000000000000000000e+00
Cu 5.975850780020014463e-01 2.261252114955649428e-01 0.000000000000000000e+00
Cu 5.898199977625439017e-01 3.242318827574528495e-01 0.000000000000000000e+00
Cu 5.815997546423409270e-01 4.230815686504386663e-01 0.000000000000000000e+00
Cu 5.729728734689951697e-01 5.227306387864991688e-01 0.000000000000000000e+00
Cu 5.640061968966967321e-01 6.232664004663994728e-01 0.000000000000000000e+00
Cu 5.547874023275484179e-01 7.248254952367922943e-01 0.000000000000000000e+00
Cu 5.452705749995961915e-01 8.274513746178162599e-01 0.000000000000000000e+00
Cu 5.351303061363623659e-01 9.310602825803450111e-01 0.000000000000000000e+00
Cu 7.317492895180269796e-01 3.968122695439341846e-02 0.000000000000000000e+00
Cu 7.234849986348916850e-01 1.370577835554080415e-01 0.000000000000000000e+00
Cu 7.144572944791011126e-01 2.350346861750328420e-01 0.000000000000000000e+00
Cu 7.048747451520191998e-01 3.337883212444779368e-01 0.000000000000000000e+00
Cu 6.948660337020343691e-01 4.333357585429282732e-01 0.000000000000000000e+00
Cu 6.845025696533820758e-01 5.336059201714296041e-01 0.000000000000000000e+00
Cu 6.737959703689280211e-01 6.345316791309123516e-01 0.000000000000000000e+00
Cu 6.627849043652709327e-01 7.363119117113179346e-01 0.000000000000000000e+00
Cu 6.516498668027456143e-01 8.392826349728264024e-01 0.000000000000000000e+00
Cu 6.403303553517004643e-01 9.431966924388484053e-01 0.000000000000000000e+00
Cu 8.510555937083666977e-01 4.964856078399169231e-02 0.000000000000000000e+00
Cu 8.408442361306435187e-01 1.474220971155350002e-01 0.000000000000000000e+00
Cu 8.297420260107252199e-01 2.458630912377095801e-01 0.000000000000000000e+00
Cu 8.180895441995273965e-01 3.452379872247441361e-01 0.000000000000000000e+00
Cu 8.062428597924340412e-01 4.455914038184216053e-01 0.000000000000000000e+00
Cu 7.943128518800068871e-01 5.465648754043371804e-01 0.000000000000000000e+00
Cu 7.822620757100449129e-01 6.479376689167281045e-01 0.000000000000000000e+00
Cu 7.696551455666903463e-01 7.496339174846127218e-01 0.000000000000000000e+00
Cu 7.567628779289014007e-01 8.522935580395032407e-01 0.000000000000000000e+00
Cu 7.456648624996276009e-01 9.556907487385833955e-01 0.000000000000000000e+00
Cu 9.690398310881063182e-01 6.186476053872264763e-02 0.000000000000000000e+00
Cu 9.566423820115439458e-01 1.601135048766516300e-01 0.000000000000000000e+00
Cu 9.432564781741676896e-01 2.589957495015665079e-01 0.000000000000000000e+00
Cu 9.291666287799926760e-01 3.587029771242321585e-01 0.000000000000000000e+00
Cu 9.152402148061716813e-01 4.596806213476392067e-01 0.000000000000000000e+00
Cu 9.023222555041552351e-01 5.613934834819247488e-01 0.000000000000000000e+00
Cu 8.893829931741381589e-01 6.629110571835187260e-01 0.000000000000000000e+00
Cu 8.753746529937203036e-01 7.654542713105384477e-01 0.000000000000000000e+00
Cu 1.567569661446592155e+00 7.684328341045143507e-01 0.000000000000000000e+00
Cu 1.558376862876735602e+00 8.730371863699221135e-01 0.000000000000000000e+00
Cu 1.085356586179416771e+00 7.660574488754325062e-02 0.000000000000000000e+00
Cu 1.070478203987711208e+00 1.753900356214456446e-01 0.000000000000000000e+00
Cu 1.054709548880972569e+00 2.749790372003450001e-01 0.000000000000000000e+00
Cu 1.038115970371687347e+00 3.749372611448627546e-01 0.000000000000000000e+00
Cu 1.021472092310157675e+00 4.754487620708965911e-01 0.000000000000000000e+00
Cu 1.009084379306695700e+00 5.765248353335146181e-01 0.000000000000000000e+00
Cu 9.953942125368314686e-01 6.791419389691207842e-01 0.000000000000000000e+00
Cu 1.687172968655035410e+00 6.739948201447893972e-01 0.000000000000000000e+00
Cu 1.676128187785078660e+00 7.774699976197382290e-01 0.000000000000000000e+00
Cu 1.668445418324505880e+00 8.796432434665353295e-01 0.000000000000000000e+00
Cu 1.199570327620548271e+00 9.403936441654335565e-02 0.000000000000000000e+00
Cu 1.181943171811861149e+00 1.935261626605278007e-01 0.000000000000000000e+00
Cu 1.163306993910163456e+00 2.938125780492864547e-01 0.000000000000000000e+00
Cu 1.144258185395466976e+00 3.954749998882224338e-01 0.000000000000000000e+00
Cu 1.839021440263680862e+00 3.731184793472471228e-01 0.000000000000000000e+00
Cu 1.818157949861177292e+00 4.759518676933461312e-01 0.000000000000000000e+00
Cu 1.809652575577133327e+00 5.804393250154538109e-01 0.000000000000000000e+00
Cu 1.797305543215098833e+00 6.829756613322965908e-01 0.000000000000000000e+00
Cu 1.788822449245332846e+00 7.841997158283775526e-01 0.000000000000000000e+00
Cu 1.783090378700501910e+00 8.843024455562121799e-01 0.000000000000000000e+00
Cu 1.311304513517761228e+00 1.144866609465421819e-01 0.000000000000000000e+00
Cu 1.290370502304916567e+00 2.144782720329267700e-01 0.000000000000000000e+00
Cu 1.268858136042704032e+00 3.160610631323718667e-01 0.000000000000000000e+00
Cu 1.964870253662613253e+00 2.859286042801938432e-01 0.000000000000000000e+00
Cu 1.946414481286176112e+00 3.885438794243639693e-01 0.000000000000000000e+00
Cu 1.934989402034032802e+00 4.894963720373320948e-01 0.000000000000000000e+00
Cu 1.920817485276610226e+00 5.890746404561383320e-01 0.000000000000000000e+00
Cu 1.912143212179925778e+00 6.895138036163600548e-01 0.000000000000000000e+00
Cu 1.905548941791270323e+00 7.884971050813678328e-01 0.000000000000000000e+00
Cu 1.901646730559667153e+00 8.866295647612123521e-01 0.000000000000000000e+00
Cu 1.419966095768957937e+00 1.378766471385905190e-01 0.000000000000000000e+00
Cu 1.395587553217339849e+00 2.388894546916971173e-01 0.000000000000000000e+00
Cu 2.094412233329449702e+00 2.009166993743232155e-01 0.000000000000000000e+00
Cu 2.075020349898931471e+00 3.016970303145457000e-01 0.000000000000000000e+00
Cu 2.060662561259508418e+00 4.007482024519685715e-01 0.000000000000000000e+00
Cu 2.048977310548048436e+00 4.992090411814583684e-01 0.000000000000000000e+00
Cu 2.038943946885691361e+00 5.970372527655333217e-01 0.000000000000000000e+00
Cu 2.031149379412394929e+00 6.938396242202468089e-01 0.000000000000000000e+00
Cu 2.026186939329722936e+00 7.906227567794723576e-01 0.000000000000000000e+00
Cu 2.023618282501034926e+00 8.869037657134571928e-01 0.000000000000000000e+00
Cu 1.525201541828683061e+00 1.655803813031197225e-01 0.000000000000000000e+00
Cu 2.224812258736187598e+00 1.181771905278071189e-01 0.000000000000000000e+00
Cu 2.206028254170139480e+00 2.178042037669217501e-01 0.000000000000000000e+00
Cu 2.191361447116758843e+00 3.151876975420562221e-01 0.000000000000000000e+00
Cu 2.179369183413962130e+00 4.111948383576849997e-01 0.000000000000000000e+00
Cu 2.169365189230914925e+00 5.066460090004596406e-01 0.000000000000000000e+00
Cu 2.161092922363240021e+00 6.016889040597358518e-01 0.000000000000000000e+00
Cu 2.154649351668805224e+00 6.964152296928306507e-01 0.000000000000000000e+00
Cu 2.150383868099577267e+00 7.910180399980637489e-01 0.000000000000000000e+00
Cu 2.148671600841602025e+00 8.856031704103062285e-01 0.000000000000000000e+00
Cu 2.352858820075843571e+00 3.589188102989981227e-02 0.000000000000000000e+00
Cu 2.337438818184255140e+00 1.350212676603312900e-01 0.000000000000000000e+00
Cu 2.324196708815376766e+00 2.311903698022031994e-01 0.000000000000000000e+00
Cu 2.313017906928531708e+00 3.256228949607908874e-01 0.000000000000000000e+00
Cu 2.303362623893533190e+00 4.190527173854626808e-01 0.000000000000000000e+00
Cu 2.294893791474877265e+00 5.119418958221002569e-01 0.000000000000000000e+00
Cu 2.287628890162234807e+00 6.046304295534220552e-01 0.000000000000000000e+00
Cu 2.281819257875512541e+00 6.973345681953506681e-01 0.000000000000000000e+00
Cu 2.277920507674763950e+00 7.902088425377569170e-01 0.000000000000000000e+00
Cu 2.276481241438266689e+00 8.832808779357409490e-01 0.000000000000000000e+00
Cu 2.466003305243567034e+00 4.954418044728291920e-02 0.000000000000000000e+00
Cu 2.456761349373568937e+00 1.464588138460752864e-01 0.000000000000000000e+00
Cu 2.447952949714236048e+00 2.406191943572608960e-01 0.000000000000000000e+00
Cu 2.439835471746205187e+00 3.330213053570719173e-01 0.000000000000000000e+00
Cu 2.432208823094800465e+00 4.245081870031049420e-01 0.000000000000000000e+00
Cu 2.424970143778805376e+00 5.155670101682510165e-01 0.000000000000000000e+00
Cu 2.418273585486258703e+00 6.064556266062002265e-01 0.000000000000000000e+00
Cu 2.412541656404588508e+00 6.974334057371756046e-01 0.000000000000000000e+00
Cu 2.408432092881290121e+00 7.887740748823025561e-01 0.000000000000000000e+00
Cu 2.406749239581236210e+00 8.805763316220577286e-01 0.000000000000000000e+00
Cu 2.586656328400349203e+00 5.952740255297411104e-02 0.000000000000000000e+00
Cu 2.581684379782464678e+00 1.541480553715240120e-01 0.000000000000000000e+00
Cu 2.576780946102035674e+00 2.466533149185322626e-01 0.000000000000000000e+00
Cu 2.571409529516432979e+00 3.376541770211651805e-01 0.000000000000000000e+00
Cu 2.565435190738378335e+00 4.280380814783739662e-01 0.000000000000000000e+00
Cu 2.559128707246488776e+00 5.181492086043638645e-01 0.000000000000000000e+00
Cu 2.552774021256809522e+00 6.079437491978905150e-01 0.000000000000000000e+00
Cu 2.546704564283072791e+00 6.975674947316322649e-01 0.000000000000000000e+00
Cu 2.541734988831947373e+00 7.875398807299818227e-01 0.000000000000000000e+00
Cu 2.539102350659829366e+00 8.782679006601731286e-01 0.000000000000000000e+00
Cu 2.712965265013788319e+00 6.623327382620074200e-02 0.000000000000000000e+00
Cu 2.712013883585949525e+00 1.588886131787990708e-01 0.000000000000000000e+00
Cu 2.710691825521933218e+00 2.497347745780516826e-01 0.000000000000000000e+00
Cu 2.707432027230805005e+00 3.399904867694175103e-01 0.000000000000000000e+00
Cu 2.702507110157901682e+00 4.302836678123689307e-01 0.000000000000000000e+00
Cu 2.696868266250341151e+00 5.203634185282139946e-01 0.000000000000000000e+00
Cu 2.690898365185392827e+00 6.100069824023675036e-01 0.000000000000000000e+00
Cu 2.684378756534953059e+00 6.988742165442478615e-01 0.000000000000000000e+00
Cu 2.677751637100016957e+00 7.875798361481439747e-01 0.000000000000000000e+00
Cu 2.673008970610908808e+00 8.774444715542534246e-01 0.000000000000000000e+00
Cu 2.842814583829157637e+00 6.849469228290520906e-02 0.000000000000000000e+00
Cu 2.847892570786231037e+00 1.597154668218255802e-01 0.000000000000000000e+00
Cu 2.849891668370049480e+00 2.497206172528149415e-01 0.000000000000000000e+00
Cu 2.847254649069101973e+00 3.409171887401162837e-01 0.000000000000000000e+00
Cu 2.842968789341505431e+00 4.320450780439416549e-01 0.000000000000000000e+00
Cu 2.837768793666534783e+00 5.228178391133261327e-01 0.000000000000000000e+00
Cu 2.832034593630608388e+00 6.131254993173689272e-01 0.000000000000000000e+00
Cu 2.825845261120842888e+00 7.028258678268813897e-01 0.000000000000000000e+00
Cu 2.816857903096421367e+00 7.907819353785976446e-01 0.000000000000000000e+00
Cu 2.807203319782135775e+00 8.800069663120761998e-01 0.000000000000000000e+00
Cu 2.970770698972715174e+00 5.829725186229427203e-02 0.000000000000000000e+00
Cu 2.991238732562600866e+00 1.533935999281473006e-01 0.000000000000000000e+00
Cu 2.992468472362318721e+00 2.483361667537486994e-01 0.000000000000000000e+00
Cu 2.990558770938362532e+00 3.418625172835045301e-01 0.000000000000000000e+00
Cu 2.986515735787339754e+00 4.342538580104330359e-01 0.000000000000000000e+00
Cu 2.981555832623469460e+00 5.259065326777132565e-01 0.000000000000000000e+00
Cu 2.976049056636373980e+00 6.171825473436354237e-01 0.000000000000000000e+00
Cu 2.969427250458821721e+00 7.086557156349866382e-01 0.000000000000000000e+00
Cu 2.961486376004885290e+00 8.011762201887858703e-01 0.000000000000000000e+00
Cu 2.936500703984057825e+00 8.937577920281902788e-01 0.000000000000000000e+00
