200

Cu 0.000000000000000000e+00 3.815399054034050719e-02 0.000000000000000000e+00
Cu 0.000000000000000000e+00 1.360573498854204533e-01 0.000000000000000000e+00
Cu 0.000000000000000000e+00 2.328745590371860685e-01 0.000000000000000000e+00
Cu 0.000000000000000000e+00 3.291999056544006041e-01 0.000000000000000000e+00
Cu 0.000000000000000000e+00 4.253584421477801247e-01 0.000000000000000000e+00
Cu 0.000000000000000000e+00 5.215143804766175784e-01 0.000000000000000000e+00
Cu 0.000000000000000000e+00 6.177994748205550835e-01 0.000000000000000000e+00
Cu 0.000000000000000000e+00 7.143612073903711224e-01 0.000000000000000000e+00
Cu 0.000000000000000000e+00 8.114901701204961793e-01 0.000000000000000000e+00
Cu 0.000000000000000000e+00 9.097264244852748538e-01 0.000000000000000000e+00
Cu 1.262454687816311760e-01 4.235107856812755922e-02 0.000000000000000000e+00
Cu 1.250742576223605462e-01 1.375061722793382846e-01 0.000000000000000000e+00
Cu 1.250136206073104161e-01 2.334813756986414135e-01 0.000000000000000000e+00
Cu 1.249584938334563355e-01 3.294931933715136152e-01 0.000000000000000000e+00
Cu 1.248717664609387268e-01 4.254625991057292556e-01 0.000000000000000000e+00
Cu 1.247428853968679530e-01 5.214619013174460749e-01 0.000000000000000000e+00
Cu 1.245812524410376682e-01 6.175666251645816063e-01 0.000000000000000000e+00
Cu 1.244124798542874805e-01 7.138319409192185327e-01 0.000000000000000000e+00
Cu 1.242823552490394806e-01 8.101603347884016593e-01 0.000000000000000000e+00
Cu 1.252596817110670779e-01 9.057737386707193084e-01 0.000000000000000000e+00
Cu 2.519675439937735240e-01 4.433627486413162233e-02 0.000000000000000000e+00
Cu 2.509720473067985624e-01 1.393317157286431685e-01 0.000000000000000000e+00
Cu 2.504225094140670183e-01 2.345710243385973615e-01 0.000000000000000000e+00
Cu 2.501930324826964758e-01 3.301153402893336475e-01 0.000000000000000000e+00
Cu 2.499668736543611824e-01 4.257560076087412160e-01 0.000000000000000000e+00
Cu 2.497001740236291512e-01 5.214608333104135962e-01 0.000000000000000000e+00
Cu 2.494191325719678776e-01 6.172404226083306744e-01 0.000000000000000000e+00
Cu 2.491978648908818594e-01 7.130413808374429507e-01 0.000000000000000000e+00
Cu 2.493437257970493870e-01 8.086530972405205908e-01 0.000000000000000000e+00
Cu 2.499790705798715928e-01 9.041328395565227938e-01 0.000000000000000000e+00
Cu 3.775975316624828326e-01 4.575923526071684622e-02 0.000000000000000000e+00
Cu 3.767822851181262811e-01 1.407252109373881566e-01 0.000000000000000000e+00
Cu 3.761748225829433245e-01 2.357731565087165804e-01 0.000000000000000000e+00
Cu 3.757649810790645861e-01 3.309601146290432339e-01 0.000000000000000000e+00
Cu 3.754032394867498068e-01 4.262356135352954323e-01 0.000000000000000000e+00
Cu 3.749847404502387738e-01 5.215514977821953391e-01 0.000000000000000000e+00
Cu 3.745766845630473241e-01 6.169327724419280123e-01 0.000000000000000000e+00
Cu 3.743157058305097151e-01 7.123398477712971077e-01 0.000000000000000000e+00
Cu 3.742951959469109635e-01 8.077493982034191777e-01 0.000000000000000000e+00
Cu 3.745384407592342590e-01 9.032287506325928916e-01 0.000000000000000000e+00
Cu 5.032386379586155645e-01 4.690996802795364268e-02 0.000000000000000000e+00
Cu 5.025660867334178494e-01 1.418546674086186843e-01 0.000000000000000000e+00
Cu 5.020273046024207320e-01 2.368397771296367194e-01 0.000000000000000000e+00
Cu 5.016085073525933247e-01 3.318754213873784664e-01 0.000000000000000000e+00
Cu 5.012341726441497114e-01 4.269155197493673670e-01 0.000000000000000000e+00
Cu 5.006922855508599834e-01 5.218302950083715253e-01 0.000000000000000000e+00
Cu 5.000391946679969557e-01 6.167624061084250320e-01 0.000000000000000000e+00
Cu 4.995324811220878680e-01 7.119289705616493880e-01 0.000000000000000000e+00
Cu 4.991816701852668237e-01 8.073090648682357262e-01 0.000000000000000000e+00
Cu 4.989681196212726877e-01 9.028490363665280238e-01 0.000000000000000000e+00
Cu 6.289374739194051322e-01 4.787454807799344791e-02 0.000000000000000000e+00
Cu 6.283865695767671955e-01 1.427838828776319402e-01 0.000000000000000000e+00
Cu 6.279445188100486464e-01 2.377345292642284724e-01 0.000000000000000000e+00
Cu 6.276119809602761501e-01 3.327266811570370741e-01 0.000000000000000000e+00
Cu 6.273232344618849821e-01 4.277080820210069634e-01 0.000000000000000000e+00
Cu 6.269932051252725680e-01 5.225475838011343077e-01 0.000000000000000000e+00
Cu 6.259139690541898338e-01 6.168575005218800422e-01 0.000000000000000000e+00
Cu 6.247135128017484718e-01 7.116602586374971562e-01 0.000000000000000000e+00
Cu 6.239571775886664229e-01 8.073334132673646302e-01 0.000000000000000000e+00
Cu 6.232194221686953028e-01 9.031624617725613202e-01 0.000000000000000000e+00
Cu 7.547392615988077758e-01 4.868115369677357418e-02 0.000000000000000000e+00
Cu 7.542923937921811595e-01 1.435315801718889672e-01 0.000000000000000000e+00
Cu 7.539423696166626110e-01 2.384367059931207233e-01 0.000000000000000000e+00
Cu 7.536971111350676544e-01 3.334083835703315901e-01 0.000000000000000000e+00
Cu 7.535666382134093011e-01 4.284409361905165414e-01 0.000000000000000000e+00
Cu 7.533813537885936107e-01 5.234528643691780392e-01 0.000000000000000000e+00
Cu 7.532796038677047612e-01 6.182502511454820437e-01 0.000000000000000000e+00
Cu 7.498433117743117382e-01 7.110509213389961669e-01 0.000000000000000000e+00
Cu 7.476426140081073868e-01 8.075796259203449345e-01 0.000000000000000000e+00
Cu 7.476539435863149841e-01 9.046381489962753708e-01 0.000000000000000000e+00
Cu 8.806946789859986247e-01 4.934719166798565843e-02 0.000000000000000000e+00
Cu 8.803355531923335864e-01 1.441091347688774893e-01 0.000000000000000000e+00
Cu 8.800561253557221963e-01 2.389341650911532833e-01 0.000000000000000000e+00
Cu 8.798847593462865158e-01 3.338470563169408933e-01 0.000000000000000000e+00
Cu 8.798140472714254257e-01 4.288794876699665859e-01 0.000000000000000000e+00
Cu 8.799409353782727816e-01 5.240882288341115469e-01 0.000000000000000000e+00
Cu 8.796774887127891684e-01 6.195289837001450861e-01 0.000000000000000000e+00
Cu 8.812126291301629610e-01 7.154673184960073096e-01 0.000000000000000000e+00
Cu 8.636922083390664584e-01 8.052453570309726638e-01 0.000000000000000000e+00
Cu 8.760918249693192550e-01 9.031616606799501845e-01 0.000000000000000000e+00
Cu 1.006858133424559876e+00 4.989356191122320400e-02 0.000000000000000000e+00
Cu 1.006570836283722237e+00 1.445354423485254447e-01 0.000000000000000000e+00
Cu 1.006351182315024406e+00 2.392346185333271147e-01 0.000000000000000000e+00
Cu 1.006224633316097794e+00 3.340108759018834972e-01 0.000000000000000000e+00
Cu 1.006241445287323621e+00 4.288962549657581724e-01 0.000000000000000000e+00
Cu 1.006324843552424131e+00 5.239517149829590048e-01 0.000000000000000000e+00
Cu 1.007057723839910768e+00 6.192383198410190692e-01 0.000000000000000000e+00
Cu 1.006197230713047341e+00 7.150411715874273044e-01 0.000000000000000000e+00
Cu 1.024504699039298083e+00 8.045092024175208856e-01 0.000000000000000000e+00
Cu 1.013075467141582253e+00 9.024068884136221547e-01 0.000000000000000000e+00
Cu 1.133279675825467070e+00 5.034739809924454468e-02 0.000000000000000000e+00
Cu 1.133054098908445217e+00 1.448407632745177809e-01 0.000000000000000000e+00
Cu 1.132892968958201463e+00 2.393672531677863424e-01 0.000000000000000000e+00
Cu 1.132838315470320767e+00 3.339212706533403185e-01 0.000000000000000000e+00
Cu 1.132917976201585963e+00 4.284972977834821672e-01 0.000000000000000000e+00
Cu 1.133321381481568579e+00 5.230316242850532316e-01 0.000000000000000000e+00
Cu 1.133888823474968222e+00 6.173575957985326657e-01 0.000000000000000000e+00
Cu 1.138007023076914814e+00 7.096864720817159800e-01 0.000000000000000000e+00
Cu 1.141062675793123260e+00 8.057623553006305617e-01 0.000000000000000000e+00
Cu 1.142070245613971524e+00 9.024009060917935754e-01 0.000000000000000000e+00
Cu 1.259996686509683217e+00 5.074108441459031227e-02 0.000000000000000000e+00
Cu 1.259828573824420372e+00 1.450666902609817899e-01 0.000000000000000000e+00
Cu 1.259746514333094147e+00 2.393838320688805588e-01 0.000000000000000000e+00
Cu 1.259789399312138514e+00 3.336539172195623348e-01 0.000000000000000000e+00
Cu 1.260046582885230970e+00 4.278242918241610404e-01 0.000000000000000000e+00
Cu 1.260602910455845382e+00 5.218080542993777104e-01 0.000000000000000000e+00
Cu 1.262158891693675677e+00 6.152779385439743898e-01 0.000000000000000000e+00
Cu 1.264067099664423655e+00 7.092964264571985922e-01 0.000000000000000000e+00
Cu 1.265738190239913852e+00 8.042523371232050966e-01 0.000000000000000000e+00
Cu 1.267523047063242814e+00 8.993953583186763412e-01 0.000000000000000000e+00
Cu 1.387022370700070617e+00 5.110843677654625106e-02 0.000000000000000000e+00
Cu 1.386918632474459567e+00 1.452626944179643553e-01 0.000000000000000000e+00
Cu 1.386943577930350280e+00 2.393565361774045996e-01 0.000000000000000000e+00
Cu 1.387131201424441906e+00 3.333242374693097254e-01 0.000000000000000000e+00
Cu 1.387535115222571225e+00 4.271225975310274925e-01 0.000000000000000000e+00
Cu 1.388326895690775942e+00 5.207114966178004734e-01 0.000000000000000000e+00
Cu 1.389442425546026705e+00 6.143609904360967100e-01 0.000000000000000000e+00
Cu 1.390651841277195322e+00 7.083832761768944497e-01 0.000000000000000000e+00
Cu 1.391943984647009858e+00 8.027661876908346317e-01 0.000000000000000000e+00
Cu 1.393294773530872277e+00 8.973850472157159919e-01 0.000000000000000000e+00
Cu 1.514337213050551245e+00 5.147475887854882637e-02 0.000000000000000000e+00
Cu 1.514319671371153309e+00 1.454748338466772539e-01 0.000000000000000000e+00
Cu 1.514494870201475551e+00 2.393583337056960081e-01 0.000000000000000000e+00
Cu 1.514846396864365952e+00 3.330530574110044384e-01 0.000000000000000000e+00
Cu 1.515384892669963790e+00 4.265537236293929224e-01 0.000000000000000000e+00
Cu 1.516088143832678536e+00 5.199814717160501365e-01 0.000000000000000000e+00
Cu 1.516881540811218398e+00 6.135390415957742150e-01 0.000000000000000000e+00
Cu 1.517735340807977229e+00 7.073609211400910812e-01 0.000000000000000000e+00
Cu 1.518671442070274047e+00 8.014741851421212093e-01 0.000000000000000000e+00
Cu 1.519673777418802940e+00 8.958230077909075106e-01 0.000000000000000000e+00
Cu 1.641882399447131213e+00 5.183880791105824337e-02 0.000000000000000000e+00
Cu 1.642001509129547454e+00 1.457225271855702720e-01 0.000000000000000000e+00
Cu 1.642388979052250564e+00 2.394303151146595088e-01 0.000000000000000000e+00
Cu 1.642946389093358217e+00 3.328945616269219920e-01 0.000000000000000000e+00
Cu 1.643570831149644418e+00 4.261640125548684654e-01 0.000000000000000000e+00
Cu 1.644168563733986677e+00 5.193871085776869956e-01 0.000000000000000000e+00
Cu 1.644702708698085658e+00 6.127406288823009639e-01 0.000000000000000000e+00
Cu 1.645215137180217058e+00 7.063557868922646366e-01 0.000000000000000000e+00
Cu 1.645789143124857246e+00 8.002799077730679000e-01 0.000000000000000000e+00
Cu 1.646505365575408719e+00 8.944482240223007308e-01 0.000000000000000000e+00
Cu 1.769558665519420426e+00 5.214755305473998265e-02 0.000000000000000000e+00
Cu 1.769913215154385266e+00 1.459694349661700419e-01 0.000000000000000000e+00
Cu 1.770622298048654342e+00 2.395401867389692352e-01 0.000000000000000000e+00
Cu 1.771464286009486688e+00 3.328117992057144647e-01 0.000000000000000000e+00
Cu 1.772221060103657875e+00 4.258702809353562269e-01 0.000000000000000000e+00
Cu 1.772738049167756236e+00 5.188771039154570497e-01 0.000000000000000000e+00
Cu 1.772991995751303396e+00 6.120102848829419573e-01 0.000000000000000000e+00
Cu 1.773095582511537094e+00 7.054208509239273672e-01 0.000000000000000000e+00
Cu 1.773237124794276864e+00 7.991832954299259439e-01 0.000000000000000000e+00
Cu 1.773620396682361822e+00 8.932387310409055647e-01 0.000000000000000000e+00
Cu 1.897221477486627617e+00 5.226695754995236420e-02 0.000000000000000000e+00
Cu 1.897996434789098741e+00 1.460924337053768618e-01 0.000000000000000000e+00
Cu 1.899213330312240711e+00 2.395505076090239382e-01 0.000000000000000000e+00
Cu 1.900475620572195101e+00 3.326574804032283450e-01 0.000000000000000000e+00
Cu 1.901437566315120176e+00 4.255808781905000560e-01 0.000000000000000000e+00
Cu 1.901895260662199050e+00 5.184778308874889996e-01 0.000000000000000000e+00
Cu 1.901829650383136228e+00 6.114609879796455427e-01 0.000000000000000000e+00
Cu 1.901409702323931139e+00 7.046811584355976432e-01 0.000000000000000000e+00
Cu 1.900954358250376730e+00 7.982953335696288955e-01 0.000000000000000000e+00
Cu 1.900842019695050400e+00 8.923073538798874660e-01 0.000000000000000000e+00
Cu 2.024656341447484298e+00 5.193875888524123602e-02 0.000000000000000000e+00
Cu 2.026204668604290049e+00 1.458406972201434504e-01 0.000000000000000000e+00
Cu 2.028237807853165542e+00 2.391725437582037928e-01 0.000000000000000000e+00
Cu 2.030058492509339896e+00 3.321741874282280182e-01 0.000000000000000000e+00
Cu 2.031226614555040388e+00 4.251817816541854089e-01 0.000000000000000000e+00
Cu 2.031643340344352122e+00 5.182623423482429770e-01 0.000000000000000000e+00
Cu 2.031290619456118662e+00 6.113157714497884365e-01 0.000000000000000000e+00
Cu 2.030234257946625487e+00 7.044045238137112142e-01 0.000000000000000000e+00
Cu 2.028890607345843478e+00 7.978566376671909488e-01 0.000000000000000000e+00
Cu 2.027941747028943364e+00 8.919022371578981812e-01 0.000000000000000000e+00
Cu 2.151485602895395921e+00 5.066806380740036808e-02 0.000000000000000000e+00
Cu 2.154569890857898962e+00 1.447210006227643841e-01 0.000000000000000000e+00
Cu 2.157885097588718715e+00 2.378756700491584941e-01 0.000000000000000000e+00
Cu 2.160212287011081589e+00 3.310467323432647602e-01 0.000000000000000000e+00
Cu 2.161436571387614247e+00 4.245947686429915047e-01 0.000000000000000000e+00
Cu 2.161828051693672315e+00 5.182751635223675768e-01 0.000000000000000000e+00
Cu 2.161368672752107756e+00 6.118602459410791283e-01 0.000000000000000000e+00
Cu 2.159754393274759376e+00 7.051011123500687816e-01 0.000000000000000000e+00
Cu 2.157073550752520941e+00 7.983491829634067338e-01 0.000000000000000000e+00
Cu 2.154534872019995273e+00 8.925104489064907831e-01 0.000000000000000000e+00
Cu 2.276844076054188371e+00 4.726893945440620304e-02 0.000000000000000000e+00
Cu 2.283496502447078580e+00 1.415313688959220773e-01 0.000000000000000000e+00
Cu 2.288316742225411371e+00 2.349402644346190450e-01 0.000000000000000000e+00
Cu 2.290617806058769634e+00 3.292655696785846686e-01 0.000000000000000000e+00
Cu 2.291845748732112664e+00 4.238331289942567914e-01 0.000000000000000000e+00
Cu 2.292223511065736741e+00 5.184696311072692909e-01 0.000000000000000000e+00
Cu 2.291734566093104775e+00 6.130757908502624254e-01 0.000000000000000000e+00
Cu 2.290121843265855439e+00 7.074693779501179947e-01 0.000000000000000000e+00
Cu 2.285906068835243055e+00 8.009669450664770318e-01 0.000000000000000000e+00
Cu 2.279755641191047566e+00 8.953171091059116682e-01 0.000000000000000000e+00
Cu 2.398029660423004472e+00 3.609590625244944728e-02 0.000000000000000000e+00
Cu 2.413933209102446131e+00 1.339550249020197425e-01 0.000000000000000000e+00
Cu 2.418509865434668171e+00 2.310631412125728756e-01 0.000000000000000000e+00
Cu 2.421070900518687896e+00 3.272718602651487618e-01 0.000000000000000000e+00
Cu 2.422309159006362567e+00 4.230275107181994954e-01 0.000000000000000000e+00
Cu 2.422679488393724156e+00 5.186803770305080663e-01 0.000000000000000000e+00
Cu 2.422167637920485728e+00 6.144876027387785600e-01 0.000000000000000000e+00
Cu 2.420291147721888247e+00 7.107903636212414833e-01 0.000000000000000000e+00
Cu 2.416326097742282464e+00 8.080113416712111363e-01 0.000000000000000000e+00
Cu 2.400929872231924112e+00 9.059982814094736936e-01 0.000000000000000000e+00
