200

Cu 0.000000000000000000e+00 1.084274763555280073e-03 0.000000000000000000e+00
Cu 0.000000000000000000e+00 1.061077603332062358e-01 0.000000000000000000e+00
Cu 0.000000000000000000e+00 2.111111574891234022e-01 0.000000000000000000e+00
Cu 0.000000000000000000e+00 3.161124972819190915e-01 0.000000000000000000e+00
Cu 0.000000000000000000e+00 4.211183060623693297e-01 0.000000000000000000e+00
Cu 0.000000000000000000e+00 5.261284785736860536e-01 0.000000000000000000e+00
Cu 0.000000000000000000e+00 6.311414049402948034e-01 0.000000000000000000e+00
Cu 0.000000000000000000e+00 7.361561740496703754e-01 0.000000000000000000e+00
Cu 0.000000000000000000e+00 8.411774298180421106e-01 0.000000000000000000e+00
Cu 0.000000000000000000e+00 9.462199725944433482e-01 0.000000000000000000e+00
Cu 1.060699082493853918e-01 1.279258433159501888e-03 0.000000000000000000e+00
Cu 1.059874771453661185e-01 1.061781464708612815e-01 0.000000000000000000e+00
Cu 1.059657487518162189e-01 2.111430752008254808e-01 0.000000000000000000e+00
Cu 1.059513431563077618e-01 3.161282269043839688e-01 0.000000000000000000e+00
Cu 1.059404752876629552e-01 4.211230323726565805e-01 0.000000000000000000e+00
Cu 1.059330085545369671e-01 5.261237441474848620e-01 0.000000000000000000e+00
Cu 1.059292956008222597e-01 6.311264722552063500e-01 0.000000000000000000e+00
Cu 1.059302087320172225e-01 7.361264268342286865e-01 0.000000000000000000e+00
Cu 1.059399573093149777e-01 8.411122206517076538e-01 0.000000000000000000e+00
Cu 1.060087382195218780e-01 9.460397183131228349e-01 0.000000000000000000e+00
Cu 2.121292153522243984e-01 1.400561649120870156e-03 0.000000000000000000e+00
Cu 2.120314263662173015e-01 1.062900528363587838e-01 0.000000000000000000e+00
Cu 2.119675834739485343e-01 2.112123759049078231e-01 0.000000000000000000e+00
Cu 2.119310081246958133e-01 3.161676314241997909e-01 0.000000000000000000e+00
Cu 2.119058341806849544e-01 4.211392350634013404e-01 0.000000000000000000e+00
Cu 2.118898505913379693e-01 5.261189595244074590e-01 0.000000000000000000e+00
Cu 2.118846054593876149e-01 6.310999354795332472e-01 0.000000000000000000e+00
Cu 2.118936746247275238e-01 7.360715077479733637e-01 0.000000000000000000e+00
Cu 2.119315326161672064e-01 8.410167305657958448e-01 0.000000000000000000e+00
Cu 2.120044659562561329e-01 9.459360534213441252e-01 0.000000000000000000e+00
Cu 3.182125161372210131e-01 1.533256482129319960e-03 0.000000000000000000e+00
Cu 3.180999082259142186e-01 1.064045817061664428e-01 0.000000000000000000e+00
Cu 3.180154455212476639e-01 2.113048778627458490e-01 0.000000000000000000e+00
Cu 3.179569486814666224e-01 3.162290718755010888e-01 0.000000000000000000e+00
Cu 3.179164513937152714e-01 4.211685243353435748e-01 0.000000000000000000e+00
Cu 3.178898416926465575e-01 5.261155480517598626e-01 0.000000000000000000e+00
Cu 3.178825081007551900e-01 6.310647474335095986e-01 0.000000000000000000e+00
Cu 3.179006922637409027e-01 7.360055276106528543e-01 0.000000000000000000e+00
Cu 3.179454892802303645e-01 8.409286358806165040e-01 0.000000000000000000e+00
Cu 3.180178533333529733e-01 9.458319971450013242e-01 0.000000000000000000e+00
Cu 4.243426060588362803e-01 1.687462345590610849e-03 0.000000000000000000e+00
Cu 4.242107935378229833e-01 1.065330747060838912e-01 0.000000000000000000e+00
Cu 4.241104606934737453e-01 2.114088730018147400e-01 0.000000000000000000e+00
Cu 4.240391978980812548e-01 3.163065917938367999e-01 0.000000000000000000e+00
Cu 4.239907427967459230e-01 4.212145566041013423e-01 0.000000000000000000e+00
Cu 4.239537159976376479e-01 5.261189227691684955e-01 0.000000000000000000e+00
Cu 4.239351052800362507e-01 6.310253598821008447e-01 0.000000000000000000e+00
Cu 4.239517679389800398e-01 7.359372175636496038e-01 0.000000000000000000e+00
Cu 4.239985715850464465e-01 8.408416702017799116e-01 0.000000000000000000e+00
Cu 4.240673445470422021e-01 9.457245615507305914e-01 0.000000000000000000e+00
Cu 5.305386872049125957e-01 1.869705931052957539e-03 0.000000000000000000e+00
Cu 5.303832004968984659e-01 1.066800744774775295e-01 0.000000000000000000e+00
Cu 5.302654267330277893e-01 2.115242918384735160e-01 0.000000000000000000e+00
Cu 5.301842799014344632e-01 3.163932170866184945e-01 0.000000000000000000e+00
Cu 5.301356389626912247e-01 4.212742474303090012e-01 0.000000000000000000e+00
Cu 5.301083107265771588e-01 5.261479001507591846e-01 0.000000000000000000e+00
Cu 5.300661447377749136e-01 6.309867932700549131e-01 0.000000000000000000e+00
Cu 5.300492585875915541e-01 7.358553739677926586e-01 0.000000000000000000e+00
Cu 5.300976043858852682e-01 8.407557152365140452e-01 0.000000000000000000e+00
Cu 5.301705430192358293e-01 9.456300881780355105e-01 0.000000000000000000e+00
Cu 6.368207027781298546e-01 2.084951080770428792e-03 0.000000000000000000e+00
Cu 6.366365626988693682e-01 1.068498945908801651e-01 0.000000000000000000e+00
Cu 6.364971215543021588e-01 2.116526356799090791e-01 0.000000000000000000e+00
Cu 6.364030181191360214e-01 3.164844306333279289e-01 0.000000000000000000e+00
Cu 6.363541074710304946e-01 4.213352523371788894e-01 0.000000000000000000e+00
Cu 6.363435074711039086e-01 5.261905283959626978e-01 0.000000000000000000e+00
Cu 6.363537629418510866e-01 6.310202357840942744e-01 0.000000000000000000e+00
Cu 6.362212531161139939e-01 7.357229864615043580e-01 0.000000000000000000e+00
Cu 6.361716579568367225e-01 8.406559244932689801e-01 0.000000000000000000e+00
Cu 6.363853890741610897e-01 9.455567934815186648e-01 0.000000000000000000e+00
Cu 7.432093694052912536e-01 2.339132985333833899e-03 0.000000000000000000e+00
Cu 7.429912733762817911e-01 1.070479337734571434e-01 0.000000000000000000e+00
Cu 7.428253449516072360e-01 2.117976663597991305e-01 0.000000000000000000e+00
Cu 7.427134019767770434e-01 3.165794328280117642e-01 0.000000000000000000e+00
Cu 7.426569668688702830e-01 4.213853355407944368e-01 0.000000000000000000e+00
Cu 7.426575677410792720e-01 5.262092695738347370e-01 0.000000000000000000e+00
Cu 7.427003085589261033e-01 6.310466027724406235e-01 0.000000000000000000e+00
Cu 7.428023766775977421e-01 7.358854842611168845e-01 0.000000000000000000e+00
Cu 7.419598517334697885e-01 8.403432425692393126e-01 0.000000000000000000e+00
Cu 7.428977685504737360e-01 9.452569092183319421e-01 0.000000000000000000e+00
Cu 8.497255893846765717e-01 2.639248738524830121e-03 0.000000000000000000e+00
Cu 8.494685752851169891e-01 1.072810120838641607e-01 0.000000000000000000e+00
Cu 8.492725127074486347e-01 2.119651177419257237e-01 0.000000000000000000e+00
Cu 8.491394913299110669e-01 3.166810992238979772e-01 0.000000000000000000e+00
Cu 8.490722859052227678e-01 4.214205289817877231e-01 0.000000000000000000e+00
Cu 8.490720465348439161e-01 5.261773340943729504e-01 0.000000000000000000e+00
Cu 8.491536111718972490e-01 6.309468198126301219e-01 0.000000000000000000e+00
Cu 8.492973637044273216e-01 7.357133518118187387e-01 0.000000000000000000e+00
Cu 8.505150086106683105e-01 8.400774132120051307e-01 0.000000000000000000e+00
Cu 8.499930832406976666e-01 9.449058670458967413e-01 0.000000000000000000e+00
Cu 9.563894593660616783e-01 2.992821943419685365e-03 0.000000000000000000e+00
Cu 9.560900432706466168e-01 1.075569028809788968e-01 0.000000000000000000e+00
Cu 9.558628501361980945e-01 2.121619350058370490e-01 0.000000000000000000e+00
Cu 9.557097836498078536e-01 3.167942981934064872e-01 0.000000000000000000e+00
Cu 9.556345284544860430e-01 4.214425847077342691e-01 0.000000000000000000e+00
Cu 9.556465249203724976e-01 5.260931109696512786e-01 0.000000000000000000e+00
Cu 9.557634210975931577e-01 6.307169027041066300e-01 0.000000000000000000e+00
Cu 9.561482492917473541e-01 7.352123399115705338e-01 0.000000000000000000e+00
Cu 9.565595363382954908e-01 8.399466709731685521e-01 0.000000000000000000e+00
Cu 9.568055896056445464e-01 9.446460807334906562e-01 0.000000000000000000e+00
Cu 1.063218900391139643e+00 3.406886854885743821e-03 0.000000000000000000e+00
Cu 1.062876689570808164e+00 1.078835817685904475e-01 0.000000000000000000e+00
Cu 1.062621669862149343e+00 2.123958365393219250e-01 0.000000000000000000e+00
Cu 1.062454094667919735e+00 3.169257647548185397e-01 0.000000000000000000e+00
Cu 1.062379151209299488e+00 4.214591574615613734e-01 0.000000000000000000e+00
Cu 1.062409040771601587e+00 5.259805853268160192e-01 0.000000000000000000e+00
Cu 1.062579790826456927e+00 6.304693678196465756e-01 0.000000000000000000e+00
Cu 1.062846973676990769e+00 7.349971709913813989e-01 0.000000000000000000e+00
Cu 1.063166288082628252e+00 8.395653992471623361e-01 0.000000000000000000e+00
Cu 1.063581994624578364e+00 9.441022099383045152e-01 0.000000000000000000e+00
Cu 1.170227820574078370e+00 3.886315389132685271e-03 0.000000000000000000e+00
Cu 1.169847689256220180e+00 1.082679083430828915e-01 0.000000000000000000e+00
Cu 1.169574084566469496e+00 2.126747840319709593e-01 0.000000000000000000e+00
Cu 1.169402065384589351e+00 3.170848934782449779e-01 0.000000000000000000e+00
Cu 1.169332556321569960e+00 4.214858584483201498e-01 0.000000000000000000e+00
Cu 1.169373105021668469e+00 5.258745756066476318e-01 0.000000000000000000e+00
Cu 1.169515432240529229e+00 6.302729648538807350e-01 0.000000000000000000e+00
Cu 1.169744559691829666e+00 7.346956714388540588e-01 0.000000000000000000e+00
Cu 1.170070815339362857e+00 8.391280733055000995e-01 0.000000000000000000e+00
Cu 1.170510835710858677e+00 9.435410645387911632e-01 0.000000000000000000e+00
Cu 1.277424062912504210e+00 4.431091569668826717e-03 0.000000000000000000e+00
Cu 1.277018871250632515e+00 1.087129752125729765e-01 0.000000000000000000e+00
Cu 1.276744031798162649e+00 2.130045542166525696e-01 0.000000000000000000e+00
Cu 1.276582609596893070e+00 3.172808771305152264e-01 0.000000000000000000e+00
Cu 1.276522627854109082e+00 4.215360147339618502e-01 0.000000000000000000e+00
Cu 1.276553847478614223e+00 5.257844213859629301e-01 0.000000000000000000e+00
Cu 1.276669973764891441e+00 6.300480692774717006e-01 0.000000000000000000e+00
Cu 1.276877739387898503e+00 7.343378378498250925e-01 0.000000000000000000e+00
Cu 1.277195535409373361e+00 8.386466318017357091e-01 0.000000000000000000e+00
Cu 1.277641588480270540e+00 9.429526487313358851e-01 0.000000000000000000e+00
Cu 1.384807730543512916e+00 5.032316017449777086e-03 0.000000000000000000e+00
Cu 1.384401832333015170e+00 1.092134685329443355e-01 0.000000000000000000e+00
Cu 1.384154337085379050e+00 2.133827879247615633e-01 0.000000000000000000e+00
Cu 1.384028055738288021e+00 3.175141664498799532e-01 0.000000000000000000e+00
Cu 1.383988257510782249e+00 4.216092515482625647e-01 0.000000000000000000e+00
Cu 1.384010806586690068e+00 5.256922668135578514e-01 0.000000000000000000e+00
Cu 1.384093626199838667e+00 6.297947778372542382e-01 0.000000000000000000e+00
Cu 1.384258424321672454e+00 7.339380804780749612e-01 0.000000000000000000e+00
Cu 1.384539753026950759e+00 8.381226335113715065e-01 0.000000000000000000e+00
Cu 1.384974472633330400e+00 9.423234625289024224e-01 0.000000000000000000e+00
Cu 1.492370306548450376e+00 5.667074844522592726e-03 0.000000000000000000e+00
Cu 1.492004768853148367e+00 1.097492466015236035e-01 0.000000000000000000e+00
Cu 1.491829006497930266e+00 2.137898399965023899e-01 0.000000000000000000e+00
Cu 1.491776124542522952e+00 3.177668660609307416e-01 0.000000000000000000e+00
Cu 1.491780269556210348e+00 4.216923786470972990e-01 0.000000000000000000e+00
Cu 1.491797119696183005e+00 5.256002707632697613e-01 0.000000000000000000e+00
Cu 1.491825869391174120e+00 6.295310899939131621e-01 0.000000000000000000e+00
Cu 1.491909137142966024e+00 7.335177236412618873e-01 0.000000000000000000e+00
Cu 1.492111220350747169e+00 8.375712547159979149e-01 0.000000000000000000e+00
Cu 1.492498078244671511e+00 9.416692341348317230e-01 0.000000000000000000e+00
Cu 1.600093651889051838e+00 6.291755400792706752e-03 0.000000000000000000e+00
Cu 1.599836372014812325e+00 1.102773851256242804e-01 0.000000000000000000e+00
Cu 1.599798443357524524e+00 2.141779079941378838e-01 0.000000000000000000e+00
Cu 1.599867293003510937e+00 3.179941194658066350e-01 0.000000000000000000e+00
Cu 1.599938952334793774e+00 4.217644464923925307e-01 0.000000000000000000e+00
Cu 1.599951963865122728e+00 5.255245476121584991e-01 0.000000000000000000e+00
Cu 1.599905743086536436e+00 6.292987235707967475e-01 0.000000000000000000e+00
Cu 1.599860468505995614e+00 7.331222676763005097e-01 0.000000000000000000e+00
Cu 1.599918783159772095e+00 8.370329139824974618e-01 0.000000000000000000e+00
Cu 1.600192231636464069e+00 9.410306154017278324e-01 0.000000000000000000e+00
Cu 1.707945768503180473e+00 6.830068723996549247e-03 0.000000000000000000e+00
Cu 1.707915660997416207e+00 1.107184734515043734e-01 0.000000000000000000e+00
Cu 1.708109999848423044e+00 2.144568289683622120e-01 0.000000000000000000e+00
Cu 1.708336159814361599e+00 3.181197022973925037e-01 0.000000000000000000e+00
Cu 1.708469803575274115e+00 4.217955785896309040e-01 0.000000000000000000e+00
Cu 1.708480169442723628e+00 5.254920655089493353e-01 0.000000000000000000e+00
Cu 1.708366728818995872e+00 6.291707851661808570e-01 0.000000000000000000e+00
Cu 1.708159186563475318e+00 7.328390960371156115e-01 0.000000000000000000e+00
Cu 1.707980888666594366e+00 8.365849401671424657e-01 0.000000000000000000e+00
Cu 1.708023610015031668e+00 9.404820525548291954e-01 0.000000000000000000e+00
Cu 1.815866392989013312e+00 7.136794372812524032e-03 0.000000000000000000e+00
Cu 1.816298276486290941e+00 1.109209880303702461e-01 0.000000000000000000e+00
Cu 1.816836446169249664e+00 2.144737851742518353e-01 0.000000000000000000e+00
Cu 1.817181353504692121e+00 3.180622272195799405e-01 0.000000000000000000e+00
Cu 1.817323847774010126e+00 4.217683853906554203e-01 0.000000000000000000e+00
Cu 1.817332455654987244e+00 5.255178539761308221e-01 0.000000000000000000e+00
Cu 1.817206704886841884e+00 6.292261793623236121e-01 0.000000000000000000e+00
Cu 1.816877152263537631e+00 7.328186802049689863e-01 0.000000000000000000e+00
Cu 1.816352144761059551e+00 8.363768838295739805e-01 0.000000000000000000e+00
Cu 1.815930684935964434e+00 9.401670324225558373e-01 0.000000000000000000e+00
Cu 1.923737838160676006e+00 6.878889799996845689e-03 0.000000000000000000e+00
Cu 1.925142511466355399e+00 1.105399654381944707e-01 0.000000000000000000e+00
Cu 1.925991606403907763e+00 2.140651089701270382e-01 0.000000000000000000e+00
Cu 1.926311013660311877e+00 3.178327296270891944e-01 0.000000000000000000e+00
Cu 1.926426810157670255e+00 4.216967841368142178e-01 0.000000000000000000e+00
Cu 1.926434316795350155e+00 5.255859059950999113e-01 0.000000000000000000e+00
Cu 1.926333141272792204e+00 6.294518060652315450e-01 0.000000000000000000e+00
Cu 1.926027191420000451e+00 7.332227654053117272e-01 0.000000000000000000e+00
Cu 1.925189697680554257e+00 8.367520568664148506e-01 0.000000000000000000e+00
Cu 1.923794370197537296e+00 9.404171033574330041e-01 0.000000000000000000e+00
Cu 2.031344052685886137e+00 4.647077113316589944e-03 0.000000000000000000e+00
Cu 2.034483846013292130e+00 1.091016459015283491e-01 0.000000000000000000e+00
Cu 2.035310890480093171e+00 2.134035748163536361e-01 0.000000000000000000e+00
Cu 2.035632037463137589e+00 3.175527936752763347e-01 0.000000000000000000e+00
Cu 2.035742098968398306e+00 4.216171183036154790e-01 0.000000000000000000e+00
Cu 2.035748920566328835e+00 5.256579798410844218e-01 0.000000000000000000e+00
Cu 2.035652208731422164e+00 6.297242398764958393e-01 0.000000000000000000e+00
Cu 2.035343553791618465e+00 7.338769076882258879e-01 0.000000000000000000e+00
Cu 2.034527636123167671e+00 8.381829225308465858e-01 0.000000000000000000e+00
Cu 2.031397256047650313e+00 9.426408915279735901e-01 0.000000000000000000e+00
