200

Cu 0.000000000000000000e+00 4.393052971747587500e-03 0.000000000000000000e+00
Cu 0.000000000000000000e+00 1.087499471801138540e-01 0.000000000000000000e+00
Cu 0.000000000000000000e+00 2.129929196988503970e-01 0.000000000000000000e+00
Cu 0.000000000000000000e+00 3.171962498395464181e-01 0.000000000000000000e+00
Cu 0.000000000000000000e+00 4.213950523030461359e-01 0.000000000000000000e+00
Cu 0.000000000000000000e+00 5.256012932059924703e-01 0.000000000000000000e+00
Cu 0.000000000000000000e+00 6.298219318805655664e-01 0.000000000000000000e+00
Cu 0.000000000000000000e+00 7.340666716233018585e-01 0.000000000000000000e+00
Cu 0.000000000000000000e+00 8.383653000437278902e-01 0.000000000000000000e+00
Cu 0.000000000000000000e+00 9.427830329104854856e-01 0.000000000000000000e+00
Cu 1.081104579840213853e-01 5.044532716046050587e-03 0.000000000000000000e+00
Cu 1.078652472417243879e-01 1.089767009466719727e-01 0.000000000000000000e+00
Cu 1.078194047151904283e-01 2.130918964976366570e-01 0.000000000000000000e+00
Cu 1.077896847805588920e-01 3.172454406964651530e-01 0.000000000000000000e+00
Cu 1.077636075215461786e-01 4.214125162309032557e-01 0.000000000000000000e+00
Cu 1.077402518322290587e-01 5.255921045959657256e-01 0.000000000000000000e+00
Cu 1.077205392738824485e-01 6.297831538119036399e-01 0.000000000000000000e+00
Cu 1.077072068894792678e-01 7.339817808726761816e-01 0.000000000000000000e+00
Cu 1.077134997475910766e-01 8.381614014432309245e-01 0.000000000000000000e+00
Cu 1.079116571595161306e-01 9.421839945348071677e-01 0.000000000000000000e+00
Cu 2.161521069719248844e-01 5.394236786847579450e-03 0.000000000000000000e+00
Cu 2.158947318103113799e-01 1.093112960918031368e-01 0.000000000000000000e+00
Cu 2.157336659818398783e-01 2.132966442798228945e-01 0.000000000000000000e+00
Cu 2.156485209919406232e-01 3.173634767783831689e-01 0.000000000000000000e+00
Cu 2.155854608970911301e-01 4.214668931622954640e-01 0.000000000000000000e+00
Cu 2.155361164643163630e-01 5.255899785990006956e-01 0.000000000000000000e+00
Cu 2.155046978073425490e-01 6.297211751587541428e-01 0.000000000000000000e+00
Cu 2.155029290124034491e-01 7.338369666316590934e-01 0.000000000000000000e+00
Cu 2.155795716606798418e-01 8.378920754600960308e-01 0.000000000000000000e+00
Cu 2.157528294618651366e-01 9.419011924097108190e-01 0.000000000000000000e+00
Cu 3.242117347323313359e-01 5.723683920879835303e-03 0.000000000000000000e+00
Cu 3.239489371704699638e-01 1.096141345246628429e-01 0.000000000000000000e+00
Cu 3.237493323566989489e-01 2.135531728070647617e-01 0.000000000000000000e+00
Cu 3.236103738496945992e-01 3.175403463247077340e-01 0.000000000000000000e+00
Cu 3.235079377666554290e-01 4.215607792891108985e-01 0.000000000000000000e+00
Cu 3.234273453427010669e-01 5.255991534260848752e-01 0.000000000000000000e+00
Cu 3.233835417767194631e-01 6.296476023592531002e-01 0.000000000000000000e+00
Cu 3.233963663042275782e-01 7.336832853066211912e-01 0.000000000000000000e+00
Cu 3.234698385721908043e-01 8.376900411409521352e-01 0.000000000000000000e+00
Cu 3.236022421675698868e-01 9.416752889262528514e-01 0.000000000000000000e+00
Cu 4.323346228662516832e-01 6.064010197268933713e-03 0.000000000000000000e+00
Cu 4.320578139205676349e-01 1.099174062676432917e-01 0.000000000000000000e+00
Cu 4.318412811955411601e-01 2.138164906306401492e-01 0.000000000000000000e+00
Cu 4.316819884299061272e-01 3.177512737410531640e-01 0.000000000000000000e+00
Cu 4.315638946627125550e-01 4.217008341770351887e-01 0.000000000000000000e+00
Cu 4.314539709167548587e-01 5.256354432228870222e-01 0.000000000000000000e+00
Cu 4.313709210305275987e-01 6.295793505054128048e-01 0.000000000000000000e+00
Cu 4.313626613966237144e-01 7.335536556053395829e-01 0.000000000000000000e+00
Cu 4.314132592487628370e-01 8.375336126753049060e-01 0.000000000000000000e+00
Cu 4.314958535845800358e-01 9.414923762632455562e-01 0.000000000000000000e+00
Cu 5.405526964653990518e-01 6.430199383442982385e-03 0.000000000000000000e+00
Cu 5.402546185350424190e-01 1.102307048834553355e-01 0.000000000000000000e+00
Cu 5.400229898194331968e-01 2.140813338314184466e-01 0.000000000000000000e+00
Cu 5.398580923253286645e-01 3.179698558858788937e-01 0.000000000000000000e+00
Cu 5.397500987820232909e-01 4.218737870960753700e-01 0.000000000000000000e+00
Cu 5.396692443550440421e-01 5.257508871157682284e-01 0.000000000000000000e+00
Cu 5.395109636455851509e-01 6.295341543049645106e-01 0.000000000000000000e+00
Cu 5.393877201827786960e-01 7.334162302116294940e-01 0.000000000000000000e+00
Cu 5.394115420546323758e-01 8.374212934377567308e-01 0.000000000000000000e+00
Cu 5.394630723333260214e-01 9.413956310566726771e-01 0.000000000000000000e+00
Cu 6.488983317645728999e-01 6.829867315759718602e-03 0.000000000000000000e+00
Cu 6.485715155388752651e-01 1.105605516694696255e-01 0.000000000000000000e+00
Cu 6.483189612236720523e-01 2.143466900687079624e-01 0.000000000000000000e+00
Cu 6.481452595897605473e-01 3.181783030595356498e-01 0.000000000000000000e+00
Cu 6.480515576897698526e-01 4.220413749210032983e-01 0.000000000000000000e+00
Cu 6.480181467929488903e-01 5.259086005606135039e-01 0.000000000000000000e+00
Cu 6.480015842305792972e-01 6.297109642933640394e-01 0.000000000000000000e+00
Cu 6.475277858159573796e-01 7.331704450109526316e-01 0.000000000000000000e+00
Cu 6.472484456444128620e-01 8.373067528049594754e-01 0.000000000000000000e+00
Cu 6.476424877193207585e-01 9.414123182542727397e-01 0.000000000000000000e+00
Cu 7.574046592745962148e-01 7.271405550393377458e-03 0.000000000000000000e+00
Cu 7.570415367245120208e-01 1.109146418504824705e-01 0.000000000000000000e+00
Cu 7.567603888813497770e-01 2.146166675158102666e-01 0.000000000000000000e+00
Cu 7.565688417052481851e-01 3.183689818974209662e-01 0.000000000000000000e+00
Cu 7.564719751011360627e-01 4.221650342087834851e-01 0.000000000000000000e+00
Cu 7.564750046129129490e-01 5.260025275995550142e-01 0.000000000000000000e+00
Cu 7.565310980489081683e-01 6.298820178229733724e-01 0.000000000000000000e+00
Cu 7.567204681089449991e-01 7.337879410231191724e-01 0.000000000000000000e+00
Cu 7.541362793903223505e-01 8.366454899070524531e-01 0.000000000000000000e+00
Cu 7.565544107029668064e-01 9.408127555156751143e-01 0.000000000000000000e+00
Cu 8.661042542855479365e-01 7.764611289568017390e-03 0.000000000000000000e+00
Cu 8.656983661174768585e-01 1.113030145004309801e-01 0.000000000000000000e+00
Cu 8.653836428887774490e-01 2.148996448472921261e-01 0.000000000000000000e+00
Cu 8.651685189088449413e-01 3.185440200557232426e-01 0.000000000000000000e+00
Cu 8.650618626752512030e-01 4.222294769534498116e-01 0.000000000000000000e+00
Cu 8.650661041372463833e-01 5.259546454703676321e-01 0.000000000000000000e+00
Cu 8.652269808105530480e-01 6.297212637373403865e-01 0.000000000000000000e+00
Cu 8.654531256083866086e-01 7.335099187403143484e-01 0.000000000000000000e+00
Cu 8.686451784956492617e-01 8.362142759262971570e-01 0.000000000000000000e+00
Cu 8.669285613572106364e-01 9.402669413540727383e-01 0.000000000000000000e+00
Cu 9.750270819592229410e-01 8.319676811948154352e-03 0.000000000000000000e+00
Cu 9.745750544509874658e-01 1.117370441597197173e-01 0.000000000000000000e+00
Cu 9.742273290982902401e-01 2.152063321093644621e-01 0.000000000000000000e+00
Cu 9.739931295333060790e-01 3.187110898527612535e-01 0.000000000000000000e+00
Cu 9.738840009340483661e-01 4.222371445103149656e-01 0.000000000000000000e+00
Cu 9.739270572184495212e-01 5.257616132283993160e-01 0.000000000000000000e+00
Cu 9.741637153494221435e-01 6.292207200253390198e-01 0.000000000000000000e+00
Cu 9.750601709649218130e-01 7.323382688309708621e-01 0.000000000000000000e+00
Cu 9.759375167401871387e-01 8.361472399763814067e-01 0.000000000000000000e+00
Cu 9.762996306991386097e-01 9.399307100333045284e-01 0.000000000000000000e+00
Cu 1.084197939578245728e+00 8.945540529036609748e-03 0.000000000000000000e+00
Cu 1.083701842393501424e+00 1.122282514589428154e-01 0.000000000000000000e+00
Cu 1.083329739563917427e+00 2.155491613966570574e-01 0.000000000000000000e+00
Cu 1.083089699562426622e+00 3.188833277643651765e-01 0.000000000000000000e+00
Cu 1.082999728243583482e+00 4.222086492817166969e-01 0.000000000000000000e+00
Cu 1.083093448610182863e+00 5.254951025838034973e-01 0.000000000000000000e+00
Cu 1.083473913474710004e+00 6.286931307549198378e-01 0.000000000000000000e+00
Cu 1.084018811771996660e+00 7.320104104291086378e-01 0.000000000000000000e+00
Cu 1.084603560578331072e+00 8.354741229213912268e-01 0.000000000000000000e+00
Cu 1.085339608304819459e+00 9.389114404256135860e-01 0.000000000000000000e+00
Cu 1.193633109922565660e+00 9.647554466095255299e-03 0.000000000000000000e+00
Cu 1.193103392142957908e+00 1.127866506740739655e-01 0.000000000000000000e+00
Cu 1.192724896212806751e+00 2.159422492556905548e-01 0.000000000000000000e+00
Cu 1.192498750419609843e+00 3.190818600048010434e-01 0.000000000000000000e+00
Cu 1.192436420334402225e+00 4.221870103583679756e-01 0.000000000000000000e+00
Cu 1.192564067978087561e+00 5.252547105324809618e-01 0.000000000000000000e+00
Cu 1.192860462191207782e+00 6.283475015282339315e-01 0.000000000000000000e+00
Cu 1.193280297069677420e+00 7.315144793974791559e-01 0.000000000000000000e+00
Cu 1.193841335100716883e+00 8.347323500708095922e-01 0.000000000000000000e+00
Cu 1.194570919152412980e+00 9.379507685146126761e-01 0.000000000000000000e+00
Cu 1.303336687137662597e+00 1.042352655720280713e-02 0.000000000000000000e+00
Cu 1.302795800616765254e+00 1.134168615264290331e-01 0.000000000000000000e+00
Cu 1.302440429021647583e+00 2.163975423229680117e-01 0.000000000000000000e+00
Cu 1.302251789606183596e+00 3.193295661886441095e-01 0.000000000000000000e+00
Cu 1.302217976132096222e+00 4.222091657669343467e-01 0.000000000000000000e+00
Cu 1.302322968133684311e+00 5.250728667895752100e-01 0.000000000000000000e+00
Cu 1.302549751515001963e+00 6.279728279820666614e-01 0.000000000000000000e+00
Cu 1.302904964226429430e+00 7.309372748526780095e-01 0.000000000000000000e+00
Cu 1.303417200361318695e+00 8.339606918206239339e-01 0.000000000000000000e+00
Cu 1.304107710948862353e+00 9.370153937391870747e-01 0.000000000000000000e+00
Cu 1.413297740177934969e+00 1.125730066115759528e-02 0.000000000000000000e+00
Cu 1.412785378374835421e+00 1.141102866800683263e-01 0.000000000000000000e+00
Cu 1.412498467655594059e+00 2.169137343839584176e-01 0.000000000000000000e+00
Cu 1.412383425818619864e+00 3.196320898909320585e-01 0.000000000000000000e+00
Cu 1.412387220213767058e+00 4.222777217737798683e-01 0.000000000000000000e+00
Cu 1.412469870505300484e+00 5.249017753341206349e-01 0.000000000000000000e+00
Cu 1.412625499766892778e+00 6.275664393314387413e-01 0.000000000000000000e+00
Cu 1.412887082862385624e+00 7.303153314316809253e-01 0.000000000000000000e+00
Cu 1.413306971515366550e+00 8.331580538959144633e-01 0.000000000000000000e+00
Cu 1.413937825017089089e+00 9.360621144026993745e-01 0.000000000000000000e+00
Cu 1.523489250501094849e+00 1.210994918943598606e-02 0.000000000000000000e+00
Cu 1.523070767512320067e+00 1.148338495668685399e-01 0.000000000000000000e+00
Cu 1.522921616477528994e+00 2.174597135718649710e-01 0.000000000000000000e+00
Cu 1.522937890021734963e+00 3.199603851823527023e-01 0.000000000000000000e+00
Cu 1.523015442738557601e+00 4.223655248775494697e-01 0.000000000000000000e+00
Cu 1.523083023746390374e+00 5.247402076973811669e-01 0.000000000000000000e+00
Cu 1.523138135398572901e+00 6.271594373746616213e-01 0.000000000000000000e+00
Cu 1.523246949382594639e+00 7.296856043063687514e-01 0.000000000000000000e+00
Cu 1.523509276145623481e+00 8.323458142771353874e-01 0.000000000000000000e+00
Cu 1.524026603929505619e+00 9.351117026344824001e-01 0.000000000000000000e+00
Cu 1.633867145006034027e+00 1.290851385163999804e-02 0.000000000000000000e+00
Cu 1.633649846902975877e+00 1.155167036657830937e-01 0.000000000000000000e+00
Cu 1.633742226760122485e+00 2.179571803587257162e-01 0.000000000000000000e+00
Cu 1.633965606139517579e+00 3.202394827766681940e-01 0.000000000000000000e+00
Cu 1.634154845526102573e+00 4.224355338443692154e-01 0.000000000000000000e+00
Cu 1.634212060733217120e+00 5.246126228538811054e-01 0.000000000000000000e+00
Cu 1.634135352003123876e+00 6.268191344708115009e-01 0.000000000000000000e+00
Cu 1.634018660984247084e+00 7.291213427821512383e-01 0.000000000000000000e+00
Cu 1.634023376139331019e+00 8.315892997117743102e-01 0.000000000000000000e+00
Cu 1.634325454677002742e+00 9.342303432141439989e-01 0.000000000000000000e+00
Cu 1.744363543982208942e+00 1.352710930718687733e-02 0.000000000000000000e+00
Cu 1.744534876909268117e+00 1.160292961334915413e-01 0.000000000000000000e+00
Cu 1.745018851677100580e+00 2.182592637000506930e-01 0.000000000000000000e+00
Cu 1.745507100004012324e+00 3.203445534761466540e-01 0.000000000000000000e+00
Cu 1.745800438726316628e+00 4.224377715872559835e-01 0.000000000000000000e+00
Cu 1.745850451291289129e+00 5.245611199615791698e-01 0.000000000000000000e+00
Cu 1.745655346169619815e+00 6.266621981762041660e-01 0.000000000000000000e+00
Cu 1.745260093546858737e+00 7.287625213533097668e-01 0.000000000000000000e+00
Cu 1.744860955429097471e+00 8.310132471495889073e-01 0.000000000000000000e+00
Cu 1.744764055645406264e+00 9.335397766413188192e-01 0.000000000000000000e+00
Cu 1.854860976514484339e+00 1.373133699226681236e-02 0.000000000000000000e+00
Cu 1.855793014660485518e+00 1.161277200133987580e-01 0.000000000000000000e+00
Cu 1.856850968857436834e+00 2.181182147871464083e-01 0.000000000000000000e+00
Cu 1.857545935080622934e+00 3.201418982733037488e-01 0.000000000000000000e+00
Cu 1.857860278420286004e+00 4.223425119720448651e-01 0.000000000000000000e+00
Cu 1.857905529850808923e+00 5.246087105319586774e-01 0.000000000000000000e+00
Cu 1.857679999415463801e+00 6.268154748704282131e-01 0.000000000000000000e+00
Cu 1.857068917949794784e+00 7.288506999826921406e-01 0.000000000000000000e+00
Cu 1.856087282290512563e+00 8.308566422339545010e-01 0.000000000000000000e+00
Cu 1.855222616673021019e+00 9.332703024142737780e-01 0.000000000000000000e+00
Cu 1.965130268268741931e+00 1.298570180786883833e-02 0.000000000000000000e+00
Cu 1.967656655927174425e+00 1.152566226145179396e-01 0.000000000000000000e+00
Cu 1.969251025666105548e+00 2.172641898453597231e-01 0.000000000000000000e+00
Cu 1.969920689246271506e+00 3.196475546182598881e-01 0.000000000000000000e+00
Cu 1.970202560410386550e+00 4.221702290661848989e-01 0.000000000000000000e+00
Cu 1.970244854774905630e+00 5.247287149457131594e-01 0.000000000000000000e+00
Cu 1.970046109905217113e+00 6.272569431605935497e-01 0.000000000000000000e+00
Cu 1.969455193944165128e+00 7.296503458854917135e-01 0.000000000000000000e+00
Cu 1.967932485862742276e+00 8.316705450350716511e-01 0.000000000000000000e+00
Cu 1.965469314003160939e+00 9.339538861395254576e-01 0.000000000000000000e+00
Cu 2.074692575001539474e+00 8.984920675754595049e-03 0.000000000000000000e+00
Cu 2.080206171598957265e+00 1.126269705233607921e-01 0.000000000000000000e+00
Cu 2.081779532149569345e+00 2.159871841405355541e-01 0.000000000000000000e+00
Cu 2.082474912694724178e+00 3.190625755175953149e-01 0.000000000000000000e+00
Cu 2.082754364124415947e+00 4.219805578096506027e-01 0.000000000000000000e+00
Cu 2.082794785457152908e+00 5.248557213986106973e-01 0.000000000000000000e+00
Cu 2.082595041062756280e+00 6.277799800894365845e-01 0.000000000000000000e+00
Cu 2.081976027065220336e+00 7.308666312371878693e-01 0.000000000000000000e+00
Cu 2.080473551213202210e+00 8.342403861826410694e-01 0.000000000000000000e+00
Cu 2.075023650154494526e+00 9.378949799800664344e-01 0.000000000000000000e+00
