200

Cu 0.000000000000000000e+00 3.108580659341065103e-02 0.000000000000000000e+00
Cu 0.000000000000000000e+00 1.303346484078311551e-01 0.000000000000000000e+00
Cu 0.000000000000000000e+00 2.286981641299878354e-01 0.000000000000000000e+00
Cu 0.000000000000000000e+00 3.266625981920607824e-01 0.000000000000000000e+00
Cu 0.000000000000000000e+00 4.244949203406727101e-01 0.000000000000000000e+00
Cu 0.000000000000000000e+00 5.223279710644371798e-01 0.000000000000000000e+00
Cu 0.000000000000000000e+00 6.202672509662212619e-01 0.000000000000000000e+00
Cu 0.000000000000000000e+00 7.184320080827232280e-01 0.000000000000000000e+00
Cu 0.000000000000000000e+00 8.170607939597059888e-01 0.000000000000000000e+00
Cu 0.000000000000000000e+00 9.165955076132328294e-01 0.000000000000000000e+00
Cu 1.225622343464547598e-01 3.462256280177835460e-02 0.000000000000000000e+00
Cu 1.215270967077000663e-01 1.315535706174592590e-01 0.000000000000000000e+00
Cu 1.214579091142928280e-01 2.292095860994752821e-01 0.000000000000000000e+00
Cu 1.214042142285999271e-01 3.269111224804599480e-01 0.000000000000000000e+00
Cu 1.213267947977368644e-01 4.245847099614979414e-01 0.000000000000000000e+00
Cu 1.212172910922692665e-01 5.222864632630458415e-01 0.000000000000000000e+00
Cu 1.210829558317349647e-01 6.200749117762687224e-01 0.000000000000000000e+00
Cu 1.209439754620156710e-01 7.179916383482937148e-01 0.000000000000000000e+00
Cu 1.208458711193351603e-01 8.159490857055743396e-01 0.000000000000000000e+00
Cu 1.217033891802643264e-01 9.132781289618507881e-01 0.000000000000000000e+00
Cu 2.446744778709250556e-01 3.630618555345644510e-02 0.000000000000000000e+00
Cu 2.437748273154096423e-01 1.331214432028182959e-01 0.000000000000000000e+00
Cu 2.432706590456044371e-01 2.301473291285936196e-01 0.000000000000000000e+00
Cu 2.430544429768298487e-01 3.274477253233673002e-01 0.000000000000000000e+00
Cu 2.428524370259064202e-01 4.248397798058858865e-01 0.000000000000000000e+00
Cu 2.426251285977003291e-01 5.222908604328641013e-01 0.000000000000000000e+00
Cu 2.423943660472007988e-01 6.198035557241319271e-01 0.000000000000000000e+00
Cu 2.422232752510562748e-01 7.173242416559649781e-01 0.000000000000000000e+00
Cu 2.423736723573925445e-01 8.146685888226022909e-01 0.000000000000000000e+00
Cu 2.429471611119254082e-01 9.119004649904569604e-01 0.000000000000000000e+00
Cu 3.667062512394432261e-01 3.754470374547182882e-02 0.000000000000000000e+00
Cu 3.659553521330241588e-01 1.343342996882210538e-01 0.000000000000000000e+00
Cu 3.653930809807078850e-01 2.311984166908435667e-01 0.000000000000000000e+00
Cu 3.650121970216900769e-01 3.281872127744305812e-01 0.000000000000000000e+00
Cu 3.646861064172854383e-01 4.252593790594892953e-01 0.000000000000000000e+00
Cu 3.643270320050122080e-01 5.223725686860900552e-01 0.000000000000000000e+00
Cu 3.639953370150582623e-01 6.195423456139780294e-01 0.000000000000000000e+00
Cu 3.638044572633328810e-01 7.167247492559778443e-01 0.000000000000000000e+00
Cu 3.638224945892988282e-01 8.138963287239021627e-01 0.000000000000000000e+00
Cu 3.640604254217629787e-01 9.111222370171108143e-01 0.000000000000000000e+00
Cu 4.887586306380406476e-01 3.857045551487021245e-02 0.000000000000000000e+00
Cu 4.881238262053249621e-01 1.353361646935552498e-01 0.000000000000000000e+00
Cu 4.876155901759982036e-01 2.321423426160243442e-01 0.000000000000000000e+00
Cu 4.872233996510115794e-01 3.289964768392411587e-01 0.000000000000000000e+00
Cu 4.868809038900479003e-01 4.258565105332210998e-01 0.000000000000000000e+00
Cu 4.864125222516688662e-01 5.226127672036253724e-01 0.000000000000000000e+00
Cu 4.858736089403402070e-01 6.193912547320475914e-01 0.000000000000000000e+00
Cu 4.854864736839735184e-01 7.163688064874385031e-01 0.000000000000000000e+00
Cu 4.852379533260305911e-01 8.135143926266432679e-01 0.000000000000000000e+00
Cu 4.850872606527652509e-01 9.107790096303877148e-01 0.000000000000000000e+00
Cu 6.108794023580170762e-01 3.945464260960129810e-02 0.000000000000000000e+00
Cu 6.103415919573941251e-01 1.361789377229822851e-01 0.000000000000000000e+00
Cu 6.099115211171352025e-01 2.329460140072773522e-01 0.000000000000000000e+00
Cu 6.095902221037670099e-01 3.297538096757891557e-01 0.000000000000000000e+00
Cu 6.093254077330777507e-01 4.265552130198858038e-01 0.000000000000000000e+00
Cu 6.090298920190795329e-01 5.232295462660487839e-01 0.000000000000000000e+00
Cu 6.081283164191199075e-01 6.194575490557840958e-01 0.000000000000000000e+00
Cu 6.071483362960927721e-01 7.161238779606935445e-01 0.000000000000000000e+00
Cu 6.065826863880834363e-01 8.135222044736686309e-01 0.000000000000000000e+00
Cu 6.060079235587664259e-01 9.110263825268181126e-01 0.000000000000000000e+00
Cu 7.331153334025969359e-01 4.022111964650240679e-02 0.000000000000000000e+00
Cu 7.326581501333185864e-01 1.368791435535626766e-01 0.000000000000000000e+00
Cu 7.323000165915628523e-01 2.335920185193524068e-01 0.000000000000000000e+00
Cu 7.320508433660715131e-01 3.303678904252939641e-01 0.000000000000000000e+00
Cu 7.319169784436817539e-01 4.271990324474076450e-01 0.000000000000000000e+00
Cu 7.317695116955815759e-01 5.240145123376590552e-01 0.000000000000000000e+00
Cu 7.316534993183370084e-01 6.206264998572607050e-01 0.000000000000000000e+00
Cu 7.288271684173918130e-01 7.155698811865423004e-01 0.000000000000000000e+00
Cu 7.269660177713814786e-01 8.137079685569635901e-01 0.000000000000000000e+00
Cu 7.271916923752597128e-01 9.122160410584005952e-01 0.000000000000000000e+00
Cu 8.555176581445261830e-01 4.088641639720395210e-02 0.000000000000000000e+00
Cu 8.551254447575123985e-01 1.374487363393145922e-01 0.000000000000000000e+00
Cu 8.548198864861424884e-01 2.340733257643957954e-01 0.000000000000000000e+00
Cu 8.546261550278397845e-01 3.307789996670073007e-01 0.000000000000000000e+00
Cu 8.545448016900903943e-01 4.275908746540993399e-01 0.000000000000000000e+00
Cu 8.546405439549221716e-01 5.245543658021409872e-01 0.000000000000000000e+00
Cu 8.544874697836160049e-01 6.217171676246260326e-01 0.000000000000000000e+00
Cu 8.556234393715518305e-01 7.192559618526447318e-01 0.000000000000000000e+00
Cu 8.412013759137582092e-01 8.116787546299192302e-01 0.000000000000000000e+00
Cu 8.516986654002094426e-01 9.108544717499088561e-01 0.000000000000000000e+00
Cu 9.781398365143647577e-01 4.147034236764098047e-02 0.000000000000000000e+00
Cu 9.777980011167419772e-01 1.379064532688810407e-01 0.000000000000000000e+00
Cu 9.775340210671766839e-01 2.343999687237929841e-01 0.000000000000000000e+00
Cu 9.773724937715837502e-01 3.309652282245417743e-01 0.000000000000000000e+00
Cu 9.773530991809901147e-01 4.276276511969124283e-01 0.000000000000000000e+00
Cu 9.774306764262425951e-01 5.244361701073563253e-01 0.000000000000000000e+00
Cu 9.780261568612726997e-01 6.214435584447872696e-01 0.000000000000000000e+00
Cu 9.775532899221790473e-01 7.188389703278789122e-01 0.000000000000000000e+00
Cu 9.927768209446441450e-01 8.109749933056007443e-01 0.000000000000000000e+00
Cu 9.832668574532653638e-01 9.101076854796534832e-01 0.000000000000000000e+00
Cu 1.101030755522599769e+00 4.199714221241074991e-02 0.000000000000000000e+00
Cu 1.100730244383745449e+00 1.382796054963044141e-01 0.000000000000000000e+00
Cu 1.100507711084620865e+00 2.345983741486751539e-01 0.000000000000000000e+00
Cu 1.100399300137421932e+00 3.309458881065255320e-01 0.000000000000000000e+00
Cu 1.100434992637704168e+00 4.273145893416812613e-01 0.000000000000000000e+00
Cu 1.100762863804152891e+00 5.236491017368455347e-01 0.000000000000000000e+00
Cu 1.101319963113424505e+00 6.197844502327453098e-01 0.000000000000000000e+00
Cu 1.104816978492095370e+00 7.142521422312930746e-01 0.000000000000000000e+00
Cu 1.107537085632481100e+00 8.119303668611123070e-01 0.000000000000000000e+00
Cu 1.108348777093345117e+00 9.100079609362131672e-01 0.000000000000000000e+00
Cu 1.224227234420204313e+00 4.249403093533651171e-02 0.000000000000000000e+00
Cu 1.223965877434346483e+00 1.386035591147072032e-01 0.000000000000000000e+00
Cu 1.223803767287853228e+00 2.347120047706442447e-01 0.000000000000000000e+00
Cu 1.223776277162395454e+00 3.307823716588814134e-01 0.000000000000000000e+00
Cu 1.223959627994988919e+00 4.267672003192328201e-01 0.000000000000000000e+00
Cu 1.224443760549563054e+00 5.225850192800148841e-01 0.000000000000000000e+00
Cu 1.225796851870130100e+00 6.179706986634740939e-01 0.000000000000000000e+00
Cu 1.227471885872080559e+00 7.138442513839909909e-01 0.000000000000000000e+00
Cu 1.228950718503648565e+00 8.105095559441491959e-01 0.000000000000000000e+00
Cu 1.230592014684088298e+00 9.073060611910493956e-01 0.000000000000000000e+00
Cu 1.347744123466111832e+00 4.298785974796541509e-02 0.000000000000000000e+00
Cu 1.347530993718816239e+00 1.389192100437674771e-01 0.000000000000000000e+00
Cu 1.347458196702968625e+00 2.348008909713090731e-01 0.000000000000000000e+00
Cu 1.347554766848478636e+00 3.305717388363487164e-01 0.000000000000000000e+00
Cu 1.347871090261071769e+00 4.261918444551311969e-01 0.000000000000000000e+00
Cu 1.348549370451292084e+00 5.216323360910425366e-01 0.000000000000000000e+00
Cu 1.349527544706245585e+00 6.171346915946115397e-01 0.000000000000000000e+00
Cu 1.350605096723080489e+00 7.129612107472608207e-01 0.000000000000000000e+00
Cu 1.351791222881860488e+00 8.090872579839177847e-01 0.000000000000000000e+00
Cu 1.353088712715057262e+00 9.053984739854439301e-01 0.000000000000000000e+00
Cu 1.471565886082913277e+00 4.349671465902536782e-02 0.000000000000000000e+00
Cu 1.471425547299430869e+00 1.392636308561623348e-01 0.000000000000000000e+00
Cu 1.471485529787793123e+00 2.349265397631203622e-01 0.000000000000000000e+00
Cu 1.471729742143946362e+00 3.304178465199757442e-01 0.000000000000000000e+00
Cu 1.472164141161798057e+00 4.257345168446832195e-01 0.000000000000000000e+00
Cu 1.472764607381471302e+00 5.209886267912892110e-01 0.000000000000000000e+00
Cu 1.473464411806489238e+00 6.163601178305559980e-01 0.000000000000000000e+00
Cu 1.474244654370057583e+00 7.119627619522901352e-01 0.000000000000000000e+00
Cu 1.475137519853271684e+00 8.078149222193529155e-01 0.000000000000000000e+00
Cu 1.476139449219375566e+00 9.038683903706026257e-01 0.000000000000000000e+00
Cu 1.595640387430738771e+00 4.401395886512696198e-02 0.000000000000000000e+00
Cu 1.595624877505927630e+00 1.396495647651678218e-01 0.000000000000000000e+00
Cu 1.595880685128012955e+00 2.351219142108090521e-01 0.000000000000000000e+00
Cu 1.596315244681176138e+00 3.303678583515317624e-01 0.000000000000000000e+00
Cu 1.596831107774994818e+00 4.254327931824805620e-01 0.000000000000000000e+00
Cu 1.597341006137178221e+00 5.204536739775039722e-01 0.000000000000000000e+00
Cu 1.597814427121150072e+00 6.155918797105293105e-01 0.000000000000000000e+00
Cu 1.598297057692949608e+00 7.109656162531231560e-01 0.000000000000000000e+00
Cu 1.598873025932356695e+00 8.066170691038130336e-01 0.000000000000000000e+00
Cu 1.599622806377074324e+00 9.024881936628640355e-01 0.000000000000000000e+00
Cu 1.719877538450539811e+00 4.448533899991699569e-02 0.000000000000000000e+00
Cu 1.720085003340183105e+00 1.400381724150249751e-01 0.000000000000000000e+00
Cu 1.720643863897985293e+00 2.353523690378566957e-01 0.000000000000000000e+00
Cu 1.721348259843245465e+00 3.303833777073177935e-01 0.000000000000000000e+00
Cu 1.721993759500272558e+00 4.252112318731219309e-01 0.000000000000000000e+00
Cu 1.722436001853948184e+00 5.199870463300177992e-01 0.000000000000000000e+00
Cu 1.722656847926064216e+00 6.148778194584602064e-01 0.000000000000000000e+00
Cu 1.722767636929361856e+00 7.100250037328018626e-01 0.000000000000000000e+00
Cu 1.722949093852455427e+00 8.054985100733068615e-01 0.000000000000000000e+00
Cu 1.723393446601537482e+00 9.012455952495418421e-01 0.000000000000000000e+00
Cu 1.844145787891805055e+00 4.478187663000884194e-02 0.000000000000000000e+00
Cu 1.844755672063345564e+00 1.403096635735149589e-01 0.000000000000000000e+00
Cu 1.845796476859333568e+00 2.354838547255695413e-01 0.000000000000000000e+00
Cu 1.846901495092988732e+00 3.303230001348852474e-01 0.000000000000000000e+00
Cu 1.847746436115186741e+00 4.249851408716515122e-01 0.000000000000000000e+00
Cu 1.848139606175409178e+00 5.196185984079512155e-01 0.000000000000000000e+00
Cu 1.848066210474970772e+00 6.143303686147180143e-01 0.000000000000000000e+00
Cu 1.847690592744896554e+00 7.092635665418396407e-01 0.000000000000000000e+00
Cu 1.847315794468430861e+00 8.045675329252032215e-01 0.000000000000000000e+00
Cu 1.847294215852914867e+00 9.002507710519997985e-01 0.000000000000000000e+00
Cu 1.968251174632537515e+00 4.465967339433188354e-02 0.000000000000000000e+00
Cu 1.969601109147148366e+00 1.402240607472665657e-01 0.000000000000000000e+00
Cu 1.971413758497553070e+00 2.352398794263697579e-01 0.000000000000000000e+00
Cu 1.973045739856678304e+00 3.299421924487911384e-01 0.000000000000000000e+00
Cu 1.974088110809198771e+00 4.246483560927071244e-01 0.000000000000000000e+00
Cu 1.974447529754850494e+00 5.194202104094578498e-01 0.000000000000000000e+00
Cu 1.974109782316395778e+00 6.141642602261663253e-01 0.000000000000000000e+00
Cu 1.973142254480039215e+00 7.089387454304374447e-01 0.000000000000000000e+00
Cu 1.971935283114438775e+00 8.040545279099168274e-01 0.000000000000000000e+00
Cu 1.971120409415476393e+00 8.997386910927902548e-01 0.000000000000000000e+00
Cu 2.091856625467812147e+00 4.365428785963919311e-02 0.000000000000000000e+00
Cu 2.094666478172264146e+00 1.393121039276263018e-01 0.000000000000000000e+00
Cu 2.097673036058303797e+00 2.341204100657953979e-01 0.000000000000000000e+00
Cu 2.099769172411818818e+00 3.289495454219472648e-01 0.000000000000000000e+00
Cu 2.100864407249990684e+00 4.241295422591028208e-01 0.000000000000000000e+00
Cu 2.101203025695968396e+00 5.194347342665290856e-01 0.000000000000000000e+00
Cu 2.100770735655797861e+00 6.146453337173212184e-01 0.000000000000000000e+00
Cu 2.099296267708891328e+00 7.095321959705155335e-01 0.000000000000000000e+00
Cu 2.096849294012641085e+00 8.044181677246282636e-01 0.000000000000000000e+00
Cu 2.094529398296611777e+00 9.001664911114183321e-01 0.000000000000000000e+00
Cu 2.214210860536407033e+00 4.065914312417778093e-02 0.000000000000000000e+00
Cu 2.220346365774740427e+00 1.364425634511446106e-01 0.000000000000000000e+00
Cu 2.224691149479271157e+00 2.314764120671288783e-01 0.000000000000000000e+00
Cu 2.226765240110679223e+00 3.273432301378758624e-01 0.000000000000000000e+00
Cu 2.227851189391261144e+00 4.234469378986440158e-01 0.000000000000000000e+00
Cu 2.228178410579255697e+00 5.196159388513507116e-01 0.000000000000000000e+00
Cu 2.227733809645338514e+00 6.157513213353832393e-01 0.000000000000000000e+00
Cu 2.226260995243775742e+00 7.116745152617175441e-01 0.000000000000000000e+00
Cu 2.222450805522054651e+00 8.067816393798161734e-01 0.000000000000000000e+00
Cu 2.216769195078411858e+00 9.026388796439575035e-01 0.000000000000000000e+00
Cu 2.333101974442664428e+00 3.050088240691102570e-02 0.000000000000000000e+00
Cu 2.347347432899698383e+00 1.295672408014556798e-01 0.000000000000000000e+00
Cu 2.351532482939944657e+00 2.279473397235079191e-01 0.000000000000000000e+00
Cu 2.353810144370294122e+00 3.255375822511012984e-01 0.000000000000000000e+00
Cu 2.354906822042337033e+00 4.227227297781180892e-01 0.000000000000000000e+00
Cu 2.355227597732188372e+00 5.198129429749747121e-01 0.000000000000000000e+00
Cu 2.354761364846878813e+00 6.170401840680597161e-01 0.000000000000000000e+00
Cu 2.353081334254604862e+00 7.147072012070010416e-01 0.000000000000000000e+00
Cu 2.349436921327966665e+00 8.131803777197404992e-01 0.000000000000000000e+00
Cu 2.335650343199719980e+00 9.123518894370319376e-01 0.000000000000000000e+00
