200

Cu 0.000000000000000000e+00 5.780358950668473828e-02 0.000000000000000000e+00
Cu 0.000000000000000000e+00 1.519279902259380588e-01 0.000000000000000000e+00
Cu 0.000000000000000000e+00 2.444030486334752839e-01 0.000000000000000000e+00
Cu 0.000000000000000000e+00 3.361392812092375837e-01 0.000000000000000000e+00
Cu 0.000000000000000000e+00 4.276158087975100441e-01 0.000000000000000000e+00
Cu 0.000000000000000000e+00 5.190805677756060721e-01 0.000000000000000000e+00
Cu 0.000000000000000000e+00 6.107364081051955829e-01 0.000000000000000000e+00
Cu 0.000000000000000000e+00 7.028064198689770725e-01 0.000000000000000000e+00
Cu 0.000000000000000000e+00 7.957189967881435066e-01 0.000000000000000000e+00
Cu 0.000000000000000000e+00 8.902999644677491720e-01 0.000000000000000000e+00
Cu 1.366204755311330177e-01 6.370008086304679296e-02 0.000000000000000000e+00
Cu 1.351730522726064809e-01 1.539667865652594447e-01 0.000000000000000000e+00
Cu 1.351471164062774677e-01 2.452575897006258610e-01 0.000000000000000000e+00
Cu 1.350856085114706950e-01 3.365487992327798050e-01 0.000000000000000000e+00
Cu 1.349714072690900157e-01 4.277565643049008326e-01 0.000000000000000000e+00
Cu 1.347864761943358691e-01 5.189974926272989952e-01 0.000000000000000000e+00
Cu 1.345466170922491878e-01 6.103943613747939700e-01 0.000000000000000000e+00
Cu 1.342947084767030785e-01 7.020413855700804451e-01 0.000000000000000000e+00
Cu 1.340651658034448801e-01 7.938237001840321438e-01 0.000000000000000000e+00
Cu 1.352844287002722135e-01 8.847035457410749038e-01 0.000000000000000000e+00
Cu 2.725630801594184360e-01 6.645889642017673016e-02 0.000000000000000000e+00
Cu 2.713893721539111792e-01 1.564205933781479541e-01 0.000000000000000000e+00
Cu 2.707604058422307669e-01 2.467199136379691071e-01 0.000000000000000000e+00
Cu 2.705076682653655973e-01 3.373832205354118097e-01 0.000000000000000000e+00
Cu 2.702172746514219792e-01 4.281451714010542364e-01 0.000000000000000000e+00
Cu 2.698379400632224256e-01 5.189796495973865165e-01 0.000000000000000000e+00
Cu 2.694068669693203688e-01 6.099243589507180596e-01 0.000000000000000000e+00
Cu 2.690253793797196535e-01 7.009384337443355095e-01 0.000000000000000000e+00
Cu 2.691125639821172477e-01 7.917544542072667557e-01 0.000000000000000000e+00
Cu 2.698475777989197133e-01 8.823782220921970731e-01 0.000000000000000000e+00
Cu 4.084074201238990787e-01 6.834792154419415400e-02 0.000000000000000000e+00
Cu 4.074736969032691780e-01 1.582550152251105680e-01 0.000000000000000000e+00
Cu 4.067861163309707262e-01 2.482784927171366451e-01 0.000000000000000000e+00
Cu 4.063217206872376530e-01 3.384772249584420689e-01 0.000000000000000000e+00
Cu 4.058722104006726727e-01 4.287701365968427658e-01 0.000000000000000000e+00
Cu 4.052879062141734878e-01 5.190941343821953158e-01 0.000000000000000000e+00
Cu 4.046447196326935503e-01 6.095028917068417984e-01 0.000000000000000000e+00
Cu 4.041441572788581627e-01 6.999846278606970396e-01 0.000000000000000000e+00
Cu 4.039654821584451327e-01 7.905179512891440385e-01 0.000000000000000000e+00
Cu 4.041860589573422757e-01 8.811475845244135519e-01 0.000000000000000000e+00
Cu 5.442477771489808713e-01 6.981438571311353314e-02 0.000000000000000000e+00
Cu 5.435072162526715100e-01 1.596986977588742695e-01 0.000000000000000000e+00
Cu 5.429139842624126633e-01 2.496380860165266224e-01 0.000000000000000000e+00
Cu 5.424400944010095982e-01 3.396414526475224349e-01 0.000000000000000000e+00
Cu 5.419907156218427557e-01 4.296496855041819218e-01 0.000000000000000000e+00
Cu 5.412455839265650770e-01 5.194756463241968492e-01 0.000000000000000000e+00
Cu 5.402537751782736652e-01 6.092945162566064665e-01 0.000000000000000000e+00
Cu 5.393502335380090384e-01 6.994306873911749767e-01 0.000000000000000000e+00
Cu 5.386621305367720325e-01 7.899121540434790312e-01 0.000000000000000000e+00
Cu 5.382731450293126718e-01 8.806605201963451091e-01 0.000000000000000000e+00
Cu 6.801241025093843762e-01 7.098573888109503682e-02 0.000000000000000000e+00
Cu 6.795529903725539000e-01 1.608469007817068808e-01 0.000000000000000000e+00
Cu 6.790896232523092602e-01 2.507588724760937415e-01 0.000000000000000000e+00
Cu 6.787342099173993004e-01 3.407237924443308752e-01 0.000000000000000000e+00
Cu 6.783710400668931939e-01 4.306711557399218182e-01 0.000000000000000000e+00
Cu 6.779569846361416241e-01 5.204529609879624541e-01 0.000000000000000000e+00
Cu 6.763559729266425125e-01 6.094788395654342494e-01 0.000000000000000000e+00
Cu 6.745062431694444083e-01 6.991005544925467108e-01 0.000000000000000000e+00
Cu 6.731194372902690182e-01 7.899374282331008690e-01 0.000000000000000000e+00
Cu 6.719697103073274391e-01 8.810846346759860781e-01 0.000000000000000000e+00
Cu 8.160742926846545897e-01 7.190165542483398231e-02 0.000000000000000000e+00
Cu 8.156529576297623096e-01 1.617228871468106288e-01 0.000000000000000000e+00
Cu 8.153232718183344163e-01 2.516114440273404251e-01 0.000000000000000000e+00
Cu 8.150793690763482591e-01 3.415844850156526391e-01 0.000000000000000000e+00
Cu 8.149540381281119572e-01 4.316403587221459004e-01 0.000000000000000000e+00
Cu 8.146127070823423466e-01 5.216621415620105173e-01 0.000000000000000000e+00
Cu 8.146222918822668690e-01 6.114734000862042107e-01 0.000000000000000000e+00
Cu 8.093287252710236190e-01 6.983585113097916519e-01 0.000000000000000000e+00
Cu 8.062928757954613834e-01 7.902770935087702897e-01 0.000000000000000000e+00
Cu 8.054888427253033001e-01 8.832215259225426607e-01 0.000000000000000000e+00
Cu 9.521433690178500164e-01 7.257936510477004666e-02 0.000000000000000000e+00
Cu 9.518570756080162454e-01 1.623332466177347111e-01 0.000000000000000000e+00
Cu 9.516334662990350024e-01 2.521648668340141231e-01 0.000000000000000000e+00
Cu 9.515119323185862177e-01 3.421112563956709152e-01 0.000000000000000000e+00
Cu 9.514404649881652576e-01 4.322175431891604469e-01 0.000000000000000000e+00
Cu 9.516675131414611410e-01 5.225713719456968054e-01 0.000000000000000000e+00
Cu 9.509464949675298095e-01 6.132432645722840636e-01 0.000000000000000000e+00
Cu 9.539175956650267629e-01 7.048018469914648643e-01 0.000000000000000000e+00
Cu 9.272913505386805033e-01 7.869427061820407632e-01 0.000000000000000000e+00
Cu 9.450498177086261720e-01 8.813373934385543285e-01 0.000000000000000000e+00
Cu 1.088385344488344231e+00 7.303976761011807262e-02 0.000000000000000000e+00
Cu 1.088215625442978673e+00 1.626934071429593509e-01 0.000000000000000000e+00
Cu 1.088093771865783488e+00 2.524155245400574454e-01 0.000000000000000000e+00
Cu 1.088039435838975111e+00 3.422371836006788959e-01 0.000000000000000000e+00
Cu 1.088148630848320586e+00 4.322043109111615156e-01 0.000000000000000000e+00
Cu 1.088190080647495783e+00 5.224110385279622237e-01 0.000000000000000000e+00
Cu 1.089405689444982395e+00 6.129327492030846036e-01 0.000000000000000000e+00
Cu 1.087088894867676681e+00 7.043822752802786358e-01 0.000000000000000000e+00
Cu 1.114420591609132982e+00 7.861527637629707188e-01 0.000000000000000000e+00
Cu 1.097528567953959033e+00 8.805886514715500768e-01 0.000000000000000000e+00
Cu 1.224849939462360870e+00 7.331608690088733948e-02 0.000000000000000000e+00
Cu 1.224786574625160052e+00 1.628394475857242729e-01 0.000000000000000000e+00
Cu 1.224759524812707889e+00 2.523976866410256870e-01 0.000000000000000000e+00
Cu 1.224829463497239201e+00 3.419875097369026173e-01 0.000000000000000000e+00
Cu 1.224998579693378220e+00 4.316084518751541754e-01 0.000000000000000000e+00
Cu 1.225619398691933259e+00 5.211673542660780756e-01 0.000000000000000000e+00
Cu 1.226092220400003097e+00 6.105279961634643149e-01 0.000000000000000000e+00
Cu 1.232048827112146139e+00 6.969569362783707422e-01 0.000000000000000000e+00
Cu 1.235874206829672195e+00 7.884528726118829045e-01 0.000000000000000000e+00
Cu 1.237591317733443663e+00 8.810142161116681914e-01 0.000000000000000000e+00
Cu 1.361574364982846230e+00 7.345454313478178010e-02 0.000000000000000000e+00
Cu 1.361607505529144113e+00 1.628295361095120075e-01 0.000000000000000000e+00
Cu 1.361703305675509457e+00 2.521858312246434419e-01 0.000000000000000000e+00
Cu 1.361903374132885425e+00 3.414807210516320746e-01 0.000000000000000000e+00
Cu 1.362339586924733226e+00 4.306455152256458141e-01 0.000000000000000000e+00
Cu 1.363041324130757515e+00 5.195891398517381576e-01 0.000000000000000000e+00
Cu 1.365138329100292758e+00 6.077949736548799997e-01 0.000000000000000000e+00
Cu 1.367672484508610564e+00 6.966680074510392950e-01 0.000000000000000000e+00
Cu 1.369917918662445500e+00 7.868425269994161475e-01 0.000000000000000000e+00
Cu 1.372005677983050731e+00 8.773794173247986272e-01 0.000000000000000000e+00
Cu 1.498565998364565166e+00 7.350825052316470321e-02 0.000000000000000000e+00
Cu 1.498698228123580556e+00 1.627359379701182607e-01 0.000000000000000000e+00
Cu 1.498938618122410027e+00 2.518852067631588976e-01 0.000000000000000000e+00
Cu 1.499333192460697406e+00 3.408794211969976007e-01 0.000000000000000000e+00
Cu 1.499932699393496938e+00 4.296688747224439719e-01 0.000000000000000000e+00
Cu 1.500997019693122825e+00 5.181748039892697388e-01 0.000000000000000000e+00
Cu 1.502464585550619791e+00 6.067224598835693206e-01 0.000000000000000000e+00
Cu 1.504043774833665026e+00 6.957518509958622310e-01 0.000000000000000000e+00
Cu 1.505616826069781977e+00 7.853104405483464223e-01 0.000000000000000000e+00
Cu 1.507052371877704022e+00 8.752436515277439710e-01 0.000000000000000000e+00
Cu 1.635796300449264828e+00 7.352172412913610122e-02 0.000000000000000000e+00
Cu 1.636041791761202679e+00 1.626274152550929442e-01 0.000000000000000000e+00
Cu 1.636470197345751609e+00 2.515957230302992009e-01 0.000000000000000000e+00
Cu 1.637060454268937759e+00 3.403453505691107495e-01 0.000000000000000000e+00
Cu 1.637835714815728316e+00 4.288615821146873341e-01 0.000000000000000000e+00
Cu 1.638783697526359662e+00 5.172775201788427646e-01 0.000000000000000000e+00
Cu 1.639816828568905871e+00 6.058451677762759502e-01 0.000000000000000000e+00
Cu 1.640865431110285044e+00 6.947576112321478536e-01 0.000000000000000000e+00
Cu 1.641902502281548992e+00 7.840699789083663829e-01 0.000000000000000000e+00
Cu 1.642864822211741016e+00 8.736976826947614461e-01 0.000000000000000000e+00
Cu 1.773192614596257988e+00 7.350777387463544588e-02 0.000000000000000000e+00
Cu 1.773597323013412774e+00 1.625388254336454508e-01 0.000000000000000000e+00
Cu 1.774270695529003961e+00 2.513764158500744750e-01 0.000000000000000000e+00
Cu 1.775099176248036148e+00 3.399432655465299269e-01 0.000000000000000000e+00
Cu 1.775968406345329598e+00 4.282913659837895293e-01 0.000000000000000000e+00
Cu 1.776772455438908604e+00 5.165887530695064678e-01 0.000000000000000000e+00
Cu 1.777456306730237579e+00 6.050447518508580425e-01 0.000000000000000000e+00
Cu 1.778041773102032819e+00 6.938217317840243981e-01 0.000000000000000000e+00
Cu 1.778597625606884058e+00 7.829776351432113923e-01 0.000000000000000000e+00
Cu 1.779196014949169902e+00 8.724260674375998725e-01 0.000000000000000000e+00
Cu 1.910638582002841090e+00 7.341748446921204929e-02 0.000000000000000000e+00
Cu 1.911299906147715166e+00 1.624402289264089139e-01 0.000000000000000000e+00
Cu 1.912330811614598725e+00 2.512000833495997010e-01 0.000000000000000000e+00
Cu 1.913471458883438503e+00 3.396405411687316578e-01 0.000000000000000000e+00
Cu 1.914473599655377223e+00 4.278567421549778760e-01 0.000000000000000000e+00
Cu 1.915160572401468864e+00 5.160270484820892456e-01 0.000000000000000000e+00
Cu 1.915492831870830415e+00 6.043482052181035069e-01 0.000000000000000000e+00
Cu 1.915576472247897843e+00 6.929878343962010412e-01 0.000000000000000000e+00
Cu 1.915608782784532504e+00 7.820262361099419302e-01 0.000000000000000000e+00
Cu 1.915815693880594806e+00 8.713857007553945655e-01 0.000000000000000000e+00
Cu 2.047964434559022440e+00 7.310791586130309383e-02 0.000000000000000000e+00
Cu 2.049074848101025914e+00 1.622040427741425761e-01 0.000000000000000000e+00
Cu 2.050662940660287870e+00 2.509267119271099689e-01 0.000000000000000000e+00
Cu 2.052259361310434738e+00 3.392819489120511012e-01 0.000000000000000000e+00
Cu 2.053471457735854599e+00 4.274512242491802505e-01 0.000000000000000000e+00
Cu 2.054069943099526618e+00 5.156043677312170948e-01 0.000000000000000000e+00
Cu 2.054022186524794957e+00 6.038608436409353963e-01 0.000000000000000000e+00
Cu 2.053498027044577068e+00 6.923809583949679380e-01 0.000000000000000000e+00
Cu 2.052844674821241888e+00 7.813297464018851279e-01 0.000000000000000000e+00
Cu 2.052500064939907443e+00 8.706919039733668209e-01 0.000000000000000000e+00
Cu 2.184912186184245986e+00 7.229306721050987594e-02 0.000000000000000000e+00
Cu 2.186849930335299508e+00 1.615627963956112190e-01 0.000000000000000000e+00
Cu 2.189342766146065156e+00 2.502519561166459683e-01 0.000000000000000000e+00
Cu 2.191560815438700960e+00 3.385910217612626005e-01 0.000000000000000000e+00
Cu 2.192992889883752294e+00 4.269450403031793684e-01 0.000000000000000000e+00
Cu 2.193529227703214790e+00 5.153908889582181629e-01 0.000000000000000000e+00
Cu 2.193140222052780253e+00 6.038128596354536137e-01 0.000000000000000000e+00
Cu 2.191880729140655681e+00 6.922800021002494253e-01 0.000000000000000000e+00
Cu 2.190221262263930324e+00 7.811432667278588315e-01 0.000000000000000000e+00
Cu 2.188964864592075621e+00 8.706161647912362689e-01 0.000000000000000000e+00
Cu 2.321009532840868861e+00 7.041718855075636274e-02 0.000000000000000000e+00
Cu 2.324616640914775267e+00 1.599889269523706303e-01 0.000000000000000000e+00
Cu 2.328585467689739286e+00 2.485960193546773722e-01 0.000000000000000000e+00
Cu 2.331416925674321128e+00 3.372046451256137112e-01 0.000000000000000000e+00
Cu 2.332908460363815717e+00 4.262463778102598688e-01 0.000000000000000000e+00
Cu 2.333406029093491707e+00 5.154310650178312025e-01 0.000000000000000000e+00
Cu 2.332880604967566995e+00 6.045276343341371428e-01 0.000000000000000000e+00
Cu 2.330932686255842157e+00 6.932391758053704223e-01 0.000000000000000000e+00
Cu 2.327720734276748527e+00 7.819809653254901072e-01 0.000000000000000000e+00
Cu 2.324723706932436240e+00 8.717038769419025446e-01 0.000000000000000000e+00
Cu 2.455107691416520410e+00 6.614576189704017561e-02 0.000000000000000000e+00
Cu 2.462762257406863942e+00 1.561724817691398925e-01 0.000000000000000000e+00
Cu 2.468712802617966329e+00 2.450719474071350878e-01 0.000000000000000000e+00
Cu 2.471486660182616646e+00 3.350960334255451145e-01 0.000000000000000000e+00
Cu 2.473030222586868110e+00 4.253512465162459510e-01 0.000000000000000000e+00
Cu 2.473506632721469423e+00 5.156816443867328070e-01 0.000000000000000000e+00
Cu 2.472889740263731984e+00 6.059939889099056343e-01 0.000000000000000000e+00
Cu 2.470961844729810064e+00 6.961172415691389004e-01 0.000000000000000000e+00
Cu 2.465726884154642029e+00 7.851450080118872465e-01 0.000000000000000000e+00
Cu 2.458624066339656800e+00 8.752903217344526476e-01 0.000000000000000000e+00
Cu 2.583003930115162827e+00 5.280677451348807921e-02 0.000000000000000000e+00
Cu 2.603115369961921388e+00 1.470893787103803307e-01 0.000000000000000000e+00
Cu 2.608447062795884452e+00 2.405216243580424185e-01 0.000000000000000000e+00
Cu 2.611675960496056437e+00 3.327526821967545234e-01 0.000000000000000000e+00
Cu 2.613213664053323448e+00 4.244084060646904910e-01 0.000000000000000000e+00
Cu 2.613679865088391452e+00 5.159435436784202134e-01 0.000000000000000000e+00
Cu 2.613050908823299157e+00 6.076750034693256808e-01 0.000000000000000000e+00
Cu 2.610662989337083850e+00 7.000440607046162222e-01 0.000000000000000000e+00
Cu 2.606053241465602799e+00 7.936360953560140929e-01 0.000000000000000000e+00
Cu 2.586498543932875815e+00 8.880981197956346884e-01 0.000000000000000000e+00
