200

Cu 0.000000000000000000e+00 3.044261286037896856e-03 0.000000000000000000e+00
Cu 0.000000000000000000e+00 1.030350237777677425e-01 0.000000000000000000e+00
Cu 0.000000000000000000e+00 2.024741877589631145e-01 0.000000000000000000e+00
Cu 0.000000000000000000e+00 3.019347549430465016e-01 0.000000000000000000e+00
Cu 0.000000000000000000e+00 4.017704673616171451e-01 0.000000000000000000e+00
Cu 0.000000000000000000e+00 5.021998918465516715e-01 0.000000000000000000e+00
Cu 0.000000000000000000e+00 6.033988148630886617e-01 0.000000000000000000e+00
Cu 0.000000000000000000e+00 7.055231836773301346e-01 0.000000000000000000e+00
Cu 0.000000000000000000e+00 8.087135777091688515e-01 0.000000000000000000e+00
Cu 0.000000000000000000e+00 9.130709812054018659e-01 0.000000000000000000e+00
Cu 1.200058620347414645e-01 6.449061474502223827e-03 0.000000000000000000e+00
Cu 1.180468334391801544e-01 1.044475436509397226e-01 0.000000000000000000e+00
Cu 1.167943045423434217e-01 2.033336106392385212e-01 0.000000000000000000e+00
Cu 1.154692569675989100e-01 3.026613901877364676e-01 0.000000000000000000e+00
Cu 1.140441303619092323e-01 4.024837174873405754e-01 0.000000000000000000e+00
Cu 1.125095763828177914e-01 5.029445878030867068e-01 0.000000000000000000e+00
Cu 1.108639418805099086e-01 6.041839018016083029e-01 0.000000000000000000e+00
Cu 1.091068315547193274e-01 7.063378381041098830e-01 0.000000000000000000e+00
Cu 1.072480709750246730e-01 8.095443012018848083e-01 0.000000000000000000e+00
Cu 1.053185505590132770e-01 9.139515126767535635e-01 0.000000000000000000e+00
Cu 2.395449595889672101e-01 9.550947359179643228e-03 0.000000000000000000e+00
Cu 2.365405605751579321e-01 1.075519690831415603e-01 0.000000000000000000e+00
Cu 2.336556753101947104e-01 2.060426997778459224e-01 0.000000000000000000e+00
Cu 2.308495302531582138e-01 3.052401226163583559e-01 0.000000000000000000e+00
Cu 2.279168454525370147e-01 4.051003949718923192e-01 0.000000000000000000e+00
Cu 2.248159177448463275e-01 5.056744300743460929e-01 0.000000000000000000e+00
Cu 2.215283049625992595e-01 6.070437062400173556e-01 0.000000000000000000e+00
Cu 2.180381972692143067e-01 7.092998549210743908e-01 0.000000000000000000e+00
Cu 2.143331603834988108e-01 8.125603420278502131e-01 0.000000000000000000e+00
Cu 2.103998113360188993e-01 9.169985792102490763e-01 0.000000000000000000e+00
Cu 3.587097780289019155e-01 1.361207325922895311e-02 0.000000000000000000e+00
Cu 3.545861247936020755e-01 1.117721178187147668e-01 0.000000000000000000e+00
Cu 3.503031678057709764e-01 2.103696699848193186e-01 0.000000000000000000e+00
Cu 3.459194632634370881e-01 3.096100692697598689e-01 0.000000000000000000e+00
Cu 3.414008483521115966e-01 4.096006206976196551e-01 0.000000000000000000e+00
Cu 3.366927977115740656e-01 5.103728681360480968e-01 0.000000000000000000e+00
Cu 3.317730177479623621e-01 6.119631487461247854e-01 0.000000000000000000e+00
Cu 3.266029995155336763e-01 7.144091318884369102e-01 0.000000000000000000e+00
Cu 3.211135097989495923e-01 8.177836784276759641e-01 0.000000000000000000e+00
Cu 3.152162277140627133e-01 9.222458507752642198e-01 0.000000000000000000e+00
Cu 4.774007824682360290e-01 1.889683170575710489e-02 0.000000000000000000e+00
Cu 4.720184766865003767e-01 1.172907553055596713e-01 0.000000000000000000e+00
Cu 4.663213949347097542e-01 2.161677867260914376e-01 0.000000000000000000e+00
Cu 4.603849420006183024e-01 3.156852451717862551e-01 0.000000000000000000e+00
Cu 4.542429015151418503e-01 4.159437868194495458e-01 0.000000000000000000e+00
Cu 4.479019574592238984e-01 5.169968272283542721e-01 0.000000000000000000e+00
Cu 4.413668177690301953e-01 6.188755401627049624e-01 0.000000000000000000e+00
Cu 4.346052125416892120e-01 7.215909646139430089e-01 0.000000000000000000e+00
Cu 4.274819130291623859e-01 8.251405558030135978e-01 0.000000000000000000e+00
Cu 4.197888632889696381e-01 9.296118572900385901e-01 0.000000000000000000e+00
Cu 5.954897150016698060e-01 2.557510278665609676e-02 0.000000000000000000e+00
Cu 5.886816501894556186e-01 1.242407174288809868e-01 0.000000000000000000e+00
Cu 5.814549167207945235e-01 2.234830189507329701e-01 0.000000000000000000e+00
Cu 5.739279796146707913e-01 3.234189556821288059e-01 0.000000000000000000e+00
Cu 5.661718670369093598e-01 4.240890193824115584e-01 0.000000000000000000e+00
Cu 5.582219268066590523e-01 5.254911859120601214e-01 0.000000000000000000e+00
Cu 5.501137441348121770e-01 6.276522558783854677e-01 0.000000000000000000e+00
Cu 5.418673679170203927e-01 7.306295577734717162e-01 0.000000000000000000e+00
Cu 5.333599744485402194e-01 8.344098864427001994e-01 0.000000000000000000e+00
Cu 5.242242900594146215e-01 9.388854442114864529e-01 0.000000000000000000e+00
Cu 7.128587018441786549e-01 3.383721434748702961e-02 0.000000000000000000e+00
Cu 7.044154508762457967e-01 1.327748254459953647e-01 0.000000000000000000e+00
Cu 6.954764110067856997e-01 2.323930804975194719e-01 0.000000000000000000e+00
Cu 6.862627733977252342e-01 3.328134503948773082e-01 0.000000000000000000e+00
Cu 6.769078455210647549e-01 4.339927332595662768e-01 0.000000000000000000e+00
Cu 6.674748099931260281e-01 5.358085225054255440e-01 0.000000000000000000e+00
Cu 6.579486077097267405e-01 6.381531152977543142e-01 0.000000000000000000e+00
Cu 6.483213457129889390e-01 7.411776190670429365e-01 0.000000000000000000e+00
Cu 6.386458387471335429e-01 8.450858360068314035e-01 0.000000000000000000e+00
Cu 6.287460968572994302e-01 9.496365965499867778e-01 0.000000000000000000e+00
Cu 8.293712705704116006e-01 4.393139152550742249e-02 0.000000000000000000e+00
Cu 8.190771259729449083e-01 1.431253354095225194e-01 0.000000000000000000e+00
Cu 8.081967158848818444e-01 2.430326901288404617e-01 0.000000000000000000e+00
Cu 7.971063752532147051e-01 3.438635149064143137e-01 0.000000000000000000e+00
Cu 7.861765552346546837e-01 4.455902233583081684e-01 0.000000000000000000e+00
Cu 7.755031098942964940e-01 5.478065094488465681e-01 0.000000000000000000e+00
Cu 7.649970529472759351e-01 6.502873150727590534e-01 0.000000000000000000e+00
Cu 7.541757571956198003e-01 7.529732484865216957e-01 0.000000000000000000e+00
Cu 7.433214383239941103e-01 8.564813771790302788e-01 0.000000000000000000e+00
Cu 7.338276264279822714e-01 9.604117764229839205e-01 0.000000000000000000e+00
Cu 9.448202517806908451e-01 5.610099097703143134e-02 0.000000000000000000e+00
Cu 9.324946040311564710e-01 1.556009432854009999e-01 0.000000000000000000e+00
Cu 9.195196290373475190e-01 2.557252172551799374e-01 0.000000000000000000e+00
Cu 9.062617629907370187e-01 3.566370497582316834e-01 0.000000000000000000e+00
Cu 8.936260074529615016e-01 4.586689169212899708e-01 0.000000000000000000e+00
Cu 8.823840200510272291e-01 5.612234980917395477e-01 0.000000000000000000e+00
Cu 8.713587242284323020e-01 6.634470091383611878e-01 0.000000000000000000e+00
Cu 8.595453805197259545e-01 7.666051298305081030e-01 0.000000000000000000e+00
Cu 1.641225157272273583e+00 7.569161566659992069e-01 0.000000000000000000e+00
Cu 1.630320304077600646e+00 8.613509882616430247e-01 0.000000000000000000e+00
Cu 1.058940867274325015e+00 7.058281270813902830e-02 0.000000000000000000e+00
Cu 1.044344526782320148e+00 1.704163052465865746e-01 0.000000000000000000e+00
Cu 1.029265082373512996e+00 2.710007367851308135e-01 0.000000000000000000e+00
Cu 1.013840850540061345e+00 3.718049007799973382e-01 0.000000000000000000e+00
Cu 9.990371748171926747e-01 4.730265460434669444e-01 0.000000000000000000e+00
Cu 9.888305411079798546e-01 5.744455333262803443e-01 0.000000000000000000e+00
Cu 9.772199804630538056e-01 6.774354663684074573e-01 0.000000000000000000e+00
Cu 1.762439214087798689e+00 6.644558006063210343e-01 0.000000000000000000e+00
Cu 1.749682767008593487e+00 7.677159160395662374e-01 0.000000000000000000e+00
Cu 1.740355380070220281e+00 8.697085393058155978e-01 0.000000000000000000e+00
Cu 1.171369077155611116e+00 8.751436142540368335e-02 0.000000000000000000e+00
Cu 1.154303388667001551e+00 1.878491303629624964e-01 0.000000000000000000e+00
Cu 1.136691637615978134e+00 2.888252906995335545e-01 0.000000000000000000e+00
Cu 1.119367669330527892e+00 3.910337411866308677e-01 0.000000000000000000e+00
Cu 1.919289820610882158e+00 3.660975309008487333e-01 0.000000000000000000e+00
Cu 1.896730095007008510e+00 4.685623315070334693e-01 0.000000000000000000e+00
Cu 1.886532380851908552e+00 5.729005523208671180e-01 0.000000000000000000e+00
Cu 1.872492769429036974e+00 6.752000276731691120e-01 0.000000000000000000e+00
Cu 1.862380976602834970e+00 7.762279001881223772e-01 0.000000000000000000e+00
Cu 1.855072508787422692e+00 8.761511582978351864e-01 0.000000000000000000e+00
Cu 1.281796214260787492e+00 1.072366944224609070e-01 0.000000000000000000e+00
Cu 1.261733621085099344e+00 2.078492625207949973e-01 0.000000000000000000e+00
Cu 1.241727891059565048e+00 3.099165917086952882e-01 0.000000000000000000e+00
Cu 2.046529222402701187e+00 2.809324989432468445e-01 0.000000000000000000e+00
Cu 2.026448311238519207e+00 3.832323741745240486e-01 0.000000000000000000e+00
Cu 2.013427068217144900e+00 4.839740938614454091e-01 0.000000000000000000e+00
Cu 1.997633344899070851e+00 5.832790151075482044e-01 0.000000000000000000e+00
Cu 1.987359296958501220e+00 6.835230669329794839e-01 0.000000000000000000e+00
Cu 1.979211850871682055e+00 7.823146718344011763e-01 0.000000000000000000e+00
Cu 1.973805374426020443e+00 8.802697328040919311e-01 0.000000000000000000e+00
Cu 1.389649233761242719e+00 1.296696001734599923e-01 0.000000000000000000e+00
Cu 1.366540688915800938e+00 2.311640631683183345e-01 0.000000000000000000e+00
Cu 2.177378265422444947e+00 1.979255261756796558e-01 0.000000000000000000e+00
Cu 2.156455111517741052e+00 2.983807634410332588e-01 0.000000000000000000e+00
Cu 2.140569686640225289e+00 3.971739651390462367e-01 0.000000000000000000e+00
Cu 2.127345987942667271e+00 4.954086406892888594e-01 0.000000000000000000e+00
Cu 2.115780600693092151e+00 5.930230547700360288e-01 0.000000000000000000e+00
Cu 2.106482724463731859e+00 6.896219630481892349e-01 0.000000000000000000e+00
Cu 2.100048092966524838e+00 7.862213861756520705e-01 0.000000000000000000e+00
Cu 2.096049177071403591e+00 8.823213897538902950e-01 0.000000000000000000e+00
Cu 1.494622513180390966e+00 1.562503211384061452e-01 0.000000000000000000e+00
Cu 2.308981897766716251e+00 1.171115368067331269e-01 0.000000000000000000e+00
Cu 2.288764024222199822e+00 2.164307477273316183e-01 0.000000000000000000e+00
Cu 2.272661941163530930e+00 3.135525006441148843e-01 0.000000000000000000e+00
Cu 2.259222931492717912e+00 4.093236386238005564e-01 0.000000000000000000e+00
Cu 2.247764996557037875e+00 5.045611890067835947e-01 0.000000000000000000e+00
Cu 2.238045663620981340e+00 5.994055362917013463e-01 0.000000000000000000e+00
Cu 2.230177581115665664e+00 6.939426997297802879e-01 0.000000000000000000e+00
Cu 2.224520888396676721e+00 7.883610436863368598e-01 0.000000000000000000e+00
Cu 2.221459799012555969e+00 8.827595766183002901e-01 0.000000000000000000e+00
Cu 2.438135017759269552e+00 3.659870161491227125e-02 0.000000000000000000e+00
Cu 2.421383112760209677e+00 1.354890609664841927e-01 0.000000000000000000e+00
Cu 2.406812571229444142e+00 2.314200256742247608e-01 0.000000000000000000e+00
Cu 2.394282566265603762e+00 3.256189621001968071e-01 0.000000000000000000e+00
Cu 2.383255906128731283e+00 4.188300487763869651e-01 0.000000000000000000e+00
Cu 2.373405222624461963e+00 5.115160259239922569e-01 0.000000000000000000e+00
Cu 2.364765406951230720e+00 6.040153766722823336e-01 0.000000000000000000e+00
Cu 2.357605235734157478e+00 6.965384029495350626e-01 0.000000000000000000e+00
Cu 2.352395168653984125e+00 7.892307748010884971e-01 0.000000000000000000e+00
Cu 2.349695658232370477e+00 8.821080999841692805e-01 0.000000000000000000e+00
Cu 2.551073528482960207e+00 5.167443109021425257e-02 0.000000000000000000e+00
Cu 2.540613131799946078e+00 1.484243086552897994e-01 0.000000000000000000e+00
Cu 2.530562889403577209e+00 2.423775187381209117e-01 0.000000000000000000e+00
Cu 2.521167094339809012e+00 3.345648471736657470e-01 0.000000000000000000e+00
Cu 2.512227165767078052e+00 4.258437528062254396e-01 0.000000000000000000e+00
Cu 2.503659497606749440e+00 5.167077461160213270e-01 0.000000000000000000e+00
Cu 2.495643973096790535e+00 6.074140305166488840e-01 0.000000000000000000e+00
Cu 2.488627458971969464e+00 6.982163073309626267e-01 0.000000000000000000e+00
Cu 2.483286243418390438e+00 7.893768423403682011e-01 0.000000000000000000e+00
Cu 2.480438944523820410e+00 8.809773321933257462e-01 0.000000000000000000e+00
Cu 2.671604952822306700e+00 6.301232853595098438e-02 0.000000000000000000e+00
Cu 2.665551980414774480e+00 1.575019574751068963e-01 0.000000000000000000e+00
Cu 2.659496765786300454e+00 2.498247811204317714e-01 0.000000000000000000e+00
Cu 2.652904186645783202e+00 3.406260134130772999e-01 0.000000000000000000e+00
Cu 2.645653833859689108e+00 4.308122786876423249e-01 0.000000000000000000e+00
Cu 2.638048905004890976e+00 5.207357579795436342e-01 0.000000000000000000e+00
Cu 2.630411643937224930e+00 6.103523784458095847e-01 0.000000000000000000e+00
Cu 2.623110900971009407e+00 6.998027132055235633e-01 0.000000000000000000e+00
Cu 2.616986223930664046e+00 7.895952877205609788e-01 0.000000000000000000e+00
Cu 2.613291265524617657e+00 8.801161821999460289e-01 0.000000000000000000e+00
Cu 2.797896962690342715e+00 7.094584644369218707e-02 0.000000000000000000e+00
Cu 2.796003609710185245e+00 1.634848493357313748e-01 0.000000000000000000e+00
Cu 2.793617321032729084e+00 2.541712356380482762e-01 0.000000000000000000e+00
Cu 2.789175610796708948e+00 3.442487619238098762e-01 0.000000000000000000e+00
Cu 2.782988955040412993e+00 4.343586763143235108e-01 0.000000000000000000e+00
Cu 2.776061076343234291e+00 5.242575404947763529e-01 0.000000000000000000e+00
Cu 2.768824877032093124e+00 6.137242911377802645e-01 0.000000000000000000e+00
Cu 2.761105738484819216e+00 7.024105019067933275e-01 0.000000000000000000e+00
Cu 2.753388889820135965e+00 7.909293376006908405e-01 0.000000000000000000e+00
Cu 2.747687917782228428e+00 8.805834422392121441e-01 0.000000000000000000e+00
Cu 2.927862716613618854e+00 7.425060879652185808e-02 0.000000000000000000e+00
Cu 2.932129668446292747e+00 1.653722597798019389e-01 0.000000000000000000e+00
Cu 2.933129501989392818e+00 2.552574918528935366e-01 0.000000000000000000e+00
Cu 2.929313431145889712e+00 3.463124927039988865e-01 0.000000000000000000e+00
Cu 2.923763548258117240e+00 4.372838205470712669e-01 0.000000000000000000e+00
Cu 2.917270721984210446e+00 5.278825204167043594e-01 0.000000000000000000e+00
Cu 2.910267058078252145e+00 6.180007082097159765e-01 0.000000000000000000e+00
Cu 2.902889463405478487e+00 7.075055416013308340e-01 0.000000000000000000e+00
Cu 2.892833852175262344e+00 7.952354727400178236e-01 0.000000000000000000e+00
Cu 2.882310210675896656e+00 8.842441597696893973e-01 0.000000000000000000e+00
Cu 3.056099744331899792e+00 6.477662620820333339e-02 0.000000000000000000e+00
Cu 3.075908434299562622e+00 1.599105532886273828e-01 0.000000000000000000e+00
Cu 3.076081050944861506e+00 2.548157560946913147e-01 0.000000000000000000e+00
Cu 3.072979200545192136e+00 3.482713572808020519e-01 0.000000000000000000e+00
Cu 3.067659566145207517e+00 4.405388338349239263e-01 0.000000000000000000e+00
Cu 3.061400361267572645e+00 5.320208840334894607e-01 0.000000000000000000e+00
Cu 3.054620350266783024e+00 6.230844910093812361e-01 0.000000000000000000e+00
Cu 3.046789835088645759e+00 7.143085014657062359e-01 0.000000000000000000e+00
Cu 3.037775905049982406e+00 8.065809287461684907e-01 0.000000000000000000e+00
Cu 3.011807337428489717e+00 8.988281562366254862e-01 0.000000000000000000e+00
