200

Cu 0.000000000000000000e+00 4.849569994308450009e-12 0.000000000000000000e+00
Cu 0.000000000000000000e+00 1.052631578983461297e-01 0.000000000000000000e+00
Cu 0.000000000000000000e+00 2.105263157920125028e-01 0.000000000000000000e+00
Cu 0.000000000000000000e+00 3.157894736855380580e-01 0.000000000000000000e+00
Cu 0.000000000000000000e+00 4.210526315790432128e-01 0.000000000000000000e+00
Cu 0.000000000000000000e+00 5.263157894726263608e-01 0.000000000000000000e+00
Cu 0.000000000000000000e+00 6.315789473663627751e-01 0.000000000000000000e+00
Cu 0.000000000000000000e+00 7.368421052602723842e-01 0.000000000000000000e+00
Cu 0.000000000000000000e+00 8.421052631543463063e-01 0.000000000000000000e+00
Cu 0.000000000000000000e+00 9.473684210482079537e-01 0.000000000000000000e+00
Cu 1.052631579619725255e-01 3.416186719434344828e-11 0.000000000000000000e+00
Cu 1.052631579753177532e-01 1.052631579191824762e-01 0.000000000000000000e+00
Cu 1.052631579888522323e-01 2.105263158068295948e-01 0.000000000000000000e+00
Cu 1.052631579971543552e-01 3.157894736933123947e-01 0.000000000000000000e+00
Cu 1.052631579998324490e-01 4.210526315793175489e-01 0.000000000000000000e+00
Cu 1.052631579974324244e-01 5.263157894659963310e-01 0.000000000000000000e+00
Cu 1.052631579905374815e-01 6.315789473538010457e-01 0.000000000000000000e+00
Cu 1.052631579797879274e-01 7.368421052431233242e-01 0.000000000000000000e+00
Cu 1.052631579660107675e-01 8.421052631336578553e-01 0.000000000000000000e+00
Cu 1.052631579535214246e-01 9.473684210216362089e-01 0.000000000000000000e+00
Cu 2.105263162270114841e-01 2.166387736870766349e-10 0.000000000000000000e+00
Cu 2.105263163057184417e-01 1.052631580486366736e-01 0.000000000000000000e+00
Cu 2.105263163914669611e-01 2.105263159014978125e-01 0.000000000000000000e+00
Cu 2.105263164452731151e-01 3.157894737449050138e-01 0.000000000000000000e+00
Cu 2.105263164605176984e-01 4.210526315821835341e-01 0.000000000000000000e+00
Cu 2.105263164413253840e-01 5.263157894214662846e-01 0.000000000000000000e+00
Cu 2.105263163946164140e-01 6.315789472707974417e-01 0.000000000000000000e+00
Cu 2.105263163246238467e-01 7.368421051299697266e-01 0.000000000000000000e+00
Cu 2.105263162375070607e-01 8.421052630004601802e-01 0.000000000000000000e+00
Cu 2.105263161630754054e-01 9.473684208557608954e-01 0.000000000000000000e+00
Cu 3.157894761704299613e-01 1.232713122241809612e-09 0.000000000000000000e+00
Cu 3.157894765522684666e-01 1.052631587539216151e-01 0.000000000000000000e+00
Cu 3.157894770047626198e-01 2.105263164178585722e-01 0.000000000000000000e+00
Cu 3.157894773195792926e-01 3.157894740571320358e-01 0.000000000000000000e+00
Cu 3.157894774132337101e-01 4.210526316205857045e-01 0.000000000000000000e+00
Cu 3.157894772860172505e-01 5.263157891774938868e-01 0.000000000000000000e+00
Cu 3.157894770033382037e-01 6.315789467827549464e-01 0.000000000000000000e+00
Cu 3.157894766062219194e-01 7.368421044765460781e-01 0.000000000000000000e+00
Cu 3.157894761168232312e-01 8.421052622281665068e-01 0.000000000000000000e+00
Cu 3.157894757207818093e-01 9.473684199345731027e-01 0.000000000000000000e+00
Cu 4.210526440415959248e-01 6.188257064861113424e-09 0.000000000000000000e+00
Cu 4.210526455804854407e-01 1.052631621109307025e-01 0.000000000000000000e+00
Cu 4.210526476230814219e-01 2.105263188559437504e-01 0.000000000000000000e+00
Cu 4.210526490867215199e-01 3.157894755549760513e-01 0.000000000000000000e+00
Cu 4.210526497952254421e-01 4.210526321015394258e-01 0.000000000000000000e+00
Cu 4.210526491933321847e-01 5.263157880944741018e-01 0.000000000000000000e+00
Cu 4.210526476157291920e-01 6.315789443829943339e-01 0.000000000000000000e+00
Cu 4.210526456076570390e-01 7.368421011068073678e-01 0.000000000000000000e+00
Cu 4.210526431436721895e-01 8.421052584297509247e-01 0.000000000000000000e+00
Cu 4.210526411216956033e-01 9.473684154687165293e-01 0.000000000000000000e+00
Cu 5.263158443560386202e-01 2.727812297569398655e-08 0.000000000000000000e+00
Cu 5.263158492819790535e-01 1.052631760143411671e-01 0.000000000000000000e+00
Cu 5.263158571196370206e-01 2.105263288353898532e-01 0.000000000000000000e+00
Cu 5.263158628430302244e-01 3.157894816648901815e-01 0.000000000000000000e+00
Cu 5.263158657671028751e-01 4.210526341941446815e-01 0.000000000000000000e+00
Cu 5.263158657071618229e-01 5.263157861469648369e-01 0.000000000000000000e+00
Cu 5.263158581288492899e-01 6.315789339246908884e-01 0.000000000000000000e+00
Cu 5.263158479994329841e-01 7.368420867560565579e-01 0.000000000000000000e+00
Cu 5.263158372913216976e-01 8.421052423506250051e-01 0.000000000000000000e+00
Cu 5.263158271452135217e-01 9.473683990683265943e-01 0.000000000000000000e+00
Cu 6.315791589813375406e-01 1.052294549109179336e-07 0.000000000000000000e+00
Cu 6.315791701720004925e-01 1.052632259513020252e-01 0.000000000000000000e+00
Cu 6.315791953572882367e-01 2.105263641327665414e-01 0.000000000000000000e+00
Cu 6.315792142378240381e-01 3.157895031430451582e-01 0.000000000000000000e+00
Cu 6.315792239541407893e-01 4.210526414462081868e-01 0.000000000000000000e+00
Cu 6.315792240478445008e-01 5.263157793688190145e-01 0.000000000000000000e+00
Cu 6.315792162062641157e-01 6.315789162336964413e-01 0.000000000000000000e+00
Cu 6.315791612151508971e-01 7.368420230353632805e-01 0.000000000000000000e+00
Cu 6.315791057689466026e-01 8.421051979592446557e-01 0.000000000000000000e+00
Cu 6.315790822743491129e-01 9.473683529756627975e-01 0.000000000000000000e+00
Cu 7.368428185928466156e-01 3.547857392624586289e-07 0.000000000000000000e+00
Cu 7.368428287332321469e-01 1.052633815840855469e-01 0.000000000000000000e+00
Cu 7.368428950575043324e-01 2.105264720802698108e-01 0.000000000000000000e+00
Cu 7.368429471022053256e-01 3.157895683378862950e-01 0.000000000000000000e+00
Cu 7.368429738025769060e-01 4.210526632724954643e-01 0.000000000000000000e+00
Cu 7.368429739879347462e-01 5.263157576946045912e-01 0.000000000000000000e+00
Cu 7.368429464100663129e-01 6.315788551879071289e-01 0.000000000000000000e+00
Cu 7.368429114891953402e-01 7.368419749827781473e-01 0.000000000000000000e+00
Cu 7.368424249660363579e-01 8.421050033977718341e-01 0.000000000000000000e+00
Cu 7.368425871114600012e-01 9.473683213209184162e-01 0.000000000000000000e+00
Cu 8.421073686954808624e-01 1.047476526259056455e-06 0.000000000000000000e+00
Cu 8.421073187384040537e-01 1.052638053840292270e-01 0.000000000000000000e+00
Cu 8.421074573507748573e-01 2.105267603009877142e-01 0.000000000000000000e+00
Cu 8.421075756143435731e-01 3.157897411818793021e-01 0.000000000000000000e+00
Cu 8.421076362939686755e-01 4.210527210120071917e-01 0.000000000000000000e+00
Cu 8.421076357479082564e-01 5.263156996736142457e-01 0.000000000000000000e+00
Cu 8.421075751073333615e-01 6.315786801677000240e-01 0.000000000000000000e+00
Cu 8.421074466848391671e-01 7.368416617431275961e-01 0.000000000000000000e+00
Cu 8.421078818187787141e-01 8.421044101660225545e-01 0.000000000000000000e+00
Cu 8.421074042055224362e-01 9.473673970485360085e-01 0.000000000000000000e+00
Cu 9.473738955869457357e-01 2.725955069111617971e-06 0.000000000000000000e+00
Cu 9.473735813011315843e-01 1.052648291329110197e-01 0.000000000000000000e+00
Cu 9.473737973907983001e-01 2.105274477315238202e-01 0.000000000000000000e+00
Cu 9.473740178567198189e-01 3.157901537286413318e-01 0.000000000000000000e+00
Cu 9.473741313258993157e-01 4.210528593144985399e-01 0.000000000000000000e+00
Cu 9.473741313351622395e-01 5.263155606293360433e-01 0.000000000000000000e+00
Cu 9.473740185673298342e-01 6.315782597673600396e-01 0.000000000000000000e+00
Cu 9.473738591141037668e-01 7.368409116079329690e-01 0.000000000000000000e+00
Cu 9.473736723536785309e-01 8.421035864304501350e-01 0.000000000000000000e+00
Cu 9.473739366250459870e-01 9.473657303156596265e-01 0.000000000000000000e+00
Cu 1.052644255666844053e+00 6.329461014401062006e-06 0.000000000000000000e+00
Cu 1.052643200095590537e+00 1.052670732815336324e-01 0.000000000000000000e+00
Cu 1.052643407501943962e+00 2.105289625259664787e-01 0.000000000000000000e+00
Cu 1.052643755486354360e+00 3.157910785321809688e-01 0.000000000000000000e+00
Cu 1.052643943388475334e+00 4.210531740902890285e-01 0.000000000000000000e+00
Cu 1.052643943998986087e+00 5.263152450777005553e-01 0.000000000000000000e+00
Cu 1.052643764454233688e+00 6.315773327711279306e-01 0.000000000000000000e+00
Cu 1.052643422711094345e+00 7.368394502394367551e-01 0.000000000000000000e+00
Cu 1.052643213526079702e+00 8.421013472342273598e-01 0.000000000000000000e+00
Cu 1.052644269008879307e+00 9.473620990168980516e-01 0.000000000000000000e+00
Cu 1.157921267628212458e+00 1.333856564675124344e-05 0.000000000000000000e+00
Cu 1.157918630275439398e+00 1.052716436389061067e-01 0.000000000000000000e+00
Cu 1.157918606549735996e+00 2.105321330990553852e-01 0.000000000000000000e+00
Cu 1.157919141060154367e+00 3.157930716799899895e-01 0.000000000000000000e+00
Cu 1.157919486749965809e+00 4.210538670988499543e-01 0.000000000000000000e+00
Cu 1.157919487839761397e+00 5.263145523648964375e-01 0.000000000000000000e+00
Cu 1.157919143558795438e+00 6.315753476234488017e-01 0.000000000000000000e+00
Cu 1.157918609271332500e+00 7.368362868922975206e-01 0.000000000000000000e+00
Cu 1.157918632755616795e+00 8.420967774856252808e-01 0.000000000000000000e+00
Cu 1.157921270313141626e+00 9.473550834449885327e-01 0.000000000000000000e+00
Cu 1.263208852525204984e+00 2.598803604817408172e-05 0.000000000000000000e+00
Cu 1.263203424319010892e+00 1.052804013059341487e-01 0.000000000000000000e+00
Cu 1.263202911089206459e+00 2.105384370945353467e-01 0.000000000000000000e+00
Cu 1.263203932771787219e+00 3.157971225137061744e-01 0.000000000000000000e+00
Cu 1.263204767817044827e+00 4.210552928650930782e-01 0.000000000000000000e+00
Cu 1.263204768020540936e+00 5.263131277634456318e-01 0.000000000000000000e+00
Cu 1.263203933222783126e+00 6.315712982679499987e-01 0.000000000000000000e+00
Cu 1.263202911559152541e+00 7.368299838493720388e-01 0.000000000000000000e+00
Cu 1.263203424773054806e+00 8.420880197527350619e-01 0.000000000000000000e+00
Cu 1.263208852989536224e+00 9.473424331806042931e-01 0.000000000000000000e+00
Cu 1.368512017084042576e+00 4.748840489018687220e-05 0.000000000000000000e+00
Cu 1.368502360041491395e+00 1.052961234507564930e-01 0.000000000000000000e+00
Cu 1.368501462160833793e+00 2.105500258507277123e-01 0.000000000000000000e+00
Cu 1.368503943715816629e+00 3.158045572053325700e-01 0.000000000000000000e+00
Cu 1.368506154610268588e+00 4.210578954882226999e-01 0.000000000000000000e+00
Cu 1.368506154634325789e+00 5.263105254928963639e-01 0.000000000000000000e+00
Cu 1.368503943776341547e+00 6.315638638037698316e-01 0.000000000000000000e+00
Cu 1.368501462236108468e+00 7.368183951869780035e-01 0.000000000000000000e+00
Cu 1.368502360116337080e+00 8.420722976064295429e-01 0.000000000000000000e+00
Cu 1.368512017154865923e+00 9.473209326735675395e-01 0.000000000000000000e+00
Cu 1.473836539731133932e+00 8.187339242434484401e-05 0.000000000000000000e+00
Cu 1.473821662337966520e+00 1.053221725138702713e-01 0.000000000000000000e+00
Cu 1.473821654121519664e+00 2.105690773546250449e-01 0.000000000000000000e+00
Cu 1.473827779841364372e+00 3.158163175202630124e-01 0.000000000000000000e+00
Cu 1.473833029533756056e+00 4.210618788576435678e-01 0.000000000000000000e+00
Cu 1.473833029536176564e+00 5.263065421856848447e-01 0.000000000000000000e+00
Cu 1.473827779848349895e+00 6.315521035259239468e-01 0.000000000000000000e+00
Cu 1.473821654131612480e+00 7.367993436955125874e-01 0.000000000000000000e+00
Cu 1.473821662348708816e+00 8.420462485396128516e-01 0.000000000000000000e+00
Cu 1.473836539741021134e+00 9.472865476641024740e-01 0.000000000000000000e+00
Cu 1.579188366329740134e+00 1.328276670809603157e-04 0.000000000000000000e+00
Cu 1.579169710627373435e+00 1.053612389469416460e-01 0.000000000000000000e+00
Cu 1.579174377710216071e+00 2.105960990789565168e-01 0.000000000000000000e+00
Cu 1.579187685197847468e+00 3.158312997365835817e-01 0.000000000000000000e+00
Cu 1.579197732469700188e+00 4.210664761944835077e-01 0.000000000000000000e+00
Cu 1.579197732469950655e+00 5.263019448571112369e-01 0.000000000000000000e+00
Cu 1.579187685198595315e+00 6.315371213152501939e-01 0.000000000000000000e+00
Cu 1.579174377711372479e+00 7.367723219732974504e-01 0.000000000000000000e+00
Cu 1.579169710628687495e+00 8.420071821057705241e-01 0.000000000000000000e+00
Cu 1.579188366330979587e+00 9.472355933860472366e-01 0.000000000000000000e+00
Cu 1.684572606708122811e+00 2.009279286200838194e-04 0.000000000000000000e+00
Cu 1.684558528922510900e+00 1.054123187271960027e-01 0.000000000000000000e+00
Cu 1.684576120121255238e+00 2.106266627054914631e-01 0.000000000000000000e+00
Cu 1.684599702719336234e+00 3.158442708915879527e-01 0.000000000000000000e+00
Cu 1.684613481155608827e+00 4.210695072769530256e-01 0.000000000000000000e+00
Cu 1.684613481155635029e+00 5.262989137755748059e-01 0.000000000000000000e+00
Cu 1.684599702719412395e+00 6.315241501609593078e-01 0.000000000000000000e+00
Cu 1.684576120121373366e+00 7.367417583470942111e-01 0.000000000000000000e+00
Cu 1.684558528922649900e+00 8.419561023254384935e-01 0.000000000000000000e+00
Cu 1.684572606708258924e+00 9.471674931240640083e-01 0.000000000000000000e+00
Cu 1.789991568873994465e+00 2.769759622748977821e-04 0.000000000000000000e+00
Cu 1.790007825975076239e+00 1.054636514455244284e-01 0.000000000000000000e+00
Cu 1.790050998341319755e+00 2.106460830603452961e-01 0.000000000000000000e+00
Cu 1.790080188652306337e+00 3.158470791401237765e-01 0.000000000000000000e+00
Cu 1.790091393987580881e+00 4.210694173687125064e-01 0.000000000000000000e+00
Cu 1.790091393987583324e+00 5.262990036839095831e-01 0.000000000000000000e+00
Cu 1.790080188652313664e+00 6.315213419124997563e-01 0.000000000000000000e+00
Cu 1.790050998341330635e+00 7.367223379922814841e-01 0.000000000000000000e+00
Cu 1.790007825975088895e+00 8.419047696071070286e-01 0.000000000000000000e+00
Cu 1.789991568874007566e+00 9.470914450903614723e-01 0.000000000000000000e+00
Cu 1.895442322381322153e+00 3.229428335589922829e-04 0.000000000000000000e+00
Cu 1.895555154372281503e+00 1.054727821496868195e-01 0.000000000000000000e+00
Cu 1.895620432484604212e+00 2.106322554722561968e-01 0.000000000000000000e+00
Cu 1.895637750140316324e+00 3.158390800549558675e-01 0.000000000000000000e+00
Cu 1.895642070183059857e+00 4.210671935727405280e-01 0.000000000000000000e+00
Cu 1.895642070183060079e+00 5.263012274798900547e-01 0.000000000000000000e+00
Cu 1.895637750140316991e+00 6.315293409976749928e-01 0.000000000000000000e+00
Cu 1.895620432484605322e+00 7.367361655803750242e-01 0.000000000000000000e+00
Cu 1.895555154372282392e+00 8.418956389029447207e-01 0.000000000000000000e+00
Cu 1.895442322381323264e+00 9.470454782190728116e-01 0.000000000000000000e+00
Cu 2.000919329542597769e+00 1.496865042814073793e-04 0.000000000000000000e+00
Cu 2.001225869582678563e+00 1.053683160292017834e-01 0.000000000000000000e+00
Cu 2.001272961644105397e+00 2.105967121376825790e-01 0.000000000000000000e+00
Cu 2.001281009097900743e+00 3.158291591053553060e-01 0.000000000000000000e+00
Cu 2.001280638648450960e+00 4.210652747040906085e-01 0.000000000000000000e+00
Cu 2.001280638648450960e+00 5.263031463485408068e-01 0.000000000000000000e+00
Cu 2.001281009097900299e+00 6.315392619472761648e-01 0.000000000000000000e+00
Cu 2.001272961644105397e+00 7.367717089149488086e-01 0.000000000000000000e+00
Cu 2.001225869582678563e+00 8.420001050234294793e-01 0.000000000000000000e+00
Cu 2.000919329542597769e+00 9.472187345483499277e-01 0.000000000000000000e+00
