200

Cu 0.000000000000000000e+00 3.720191683460247895e-03 0.000000000000000000e+00
Cu 0.000000000000000000e+00 1.082105571072470296e-01 0.000000000000000000e+00
Cu 0.000000000000000000e+00 2.126066903927148477e-01 0.000000000000000000e+00
Cu 0.000000000000000000e+00 3.169716004345516369e-01 0.000000000000000000e+00
Cu 0.000000000000000000e+00 4.213344185232633099e-01 0.000000000000000000e+00
Cu 0.000000000000000000e+00 5.257043388846470711e-01 0.000000000000000000e+00
Cu 0.000000000000000000e+00 6.300862194189325027e-01 0.000000000000000000e+00
Cu 0.000000000000000000e+00 7.344872680608095505e-01 0.000000000000000000e+00
Cu 0.000000000000000000e+00 8.389319335754920060e-01 0.000000000000000000e+00
Cu 0.000000000000000000e+00 9.434752284678695755e-01 0.000000000000000000e+00
Cu 1.077092888846564456e-01 4.283586577412580240e-03 0.000000000000000000e+00
Cu 1.074940836462118104e-01 1.084073079728463673e-01 0.000000000000000000e+00
Cu 1.074518153785678637e-01 2.126929365815045658e-01 0.000000000000000000e+00
Cu 1.074243310808722096e-01 3.170144456950518830e-01 0.000000000000000000e+00
Cu 1.074007778475471048e-01 4.213494043866690131e-01 0.000000000000000000e+00
Cu 1.073804116280134835e-01 5.256958583859505652e-01 0.000000000000000000e+00
Cu 1.073640422550667106e-01 6.300517785802528525e-01 0.000000000000000000e+00
Cu 1.073540262562348163e-01 7.344126847407401737e-01 0.000000000000000000e+00
Cu 1.073619207966490796e-01 8.387545550858639398e-01 0.000000000000000000e+00
Cu 1.075363213871361745e-01 9.429571162554879482e-01 0.000000000000000000e+00
Cu 2.153617035479234720e-01 4.590728187087473634e-03 0.000000000000000000e+00
Cu 2.151323878258144529e-01 1.087003173246695875e-01 0.000000000000000000e+00
Cu 2.149879409498719196e-01 2.128725304934728502e-01 0.000000000000000000e+00
Cu 2.149106596508232880e-01 3.171178594786898119e-01 0.000000000000000000e+00
Cu 2.148540530003502369e-01 4.213965181802828974e-01 0.000000000000000000e+00
Cu 2.148109625996873218e-01 5.256928942176484210e-01 0.000000000000000000e+00
Cu 2.147851017651737915e-01 6.299959240572363672e-01 0.000000000000000000e+00
Cu 2.147866034878788966e-01 7.342841375806775650e-01 0.000000000000000000e+00
Cu 2.148575613604029322e-01 8.385173535170128423e-01 0.000000000000000000e+00
Cu 2.150138486160935725e-01 9.427073327400397051e-01 0.000000000000000000e+00
Cu 3.230345975140890280e-01 4.885663831243345148e-03 0.000000000000000000e+00
Cu 3.227967328932323521e-01 1.089694186336731818e-01 0.000000000000000000e+00
Cu 3.226161951504159520e-01 2.130993098984489686e-01 0.000000000000000000e+00
Cu 3.224905021522591619e-01 3.172735855151797568e-01 0.000000000000000000e+00
Cu 3.223986714279640231e-01 4.214782427121247510e-01 0.000000000000000000e+00
Cu 3.223281377328812147e-01 5.256991353679997259e-01 0.000000000000000000e+00
Cu 3.222920975746683681e-01 6.299285130896422613e-01 0.000000000000000000e+00
Cu 3.223077366585349601e-01 7.341454618989253778e-01 0.000000000000000000e+00
Cu 3.223783236744305891e-01 8.383347249389956346e-01 0.000000000000000000e+00
Cu 3.225025944338384409e-01 9.425015681359090181e-01 0.000000000000000000e+00
Cu 4.307696767782041025e-01 5.195223295360427637e-03 0.000000000000000000e+00
Cu 4.305154322487494412e-01 1.092429237080650151e-01 0.000000000000000000e+00
Cu 4.303171280689093159e-01 2.133347209739836492e-01 0.000000000000000000e+00
Cu 4.301718703524937681e-01 3.174605469158405247e-01 0.000000000000000000e+00
Cu 4.300654580260679372e-01 4.216008014981768026e-01 0.000000000000000000e+00
Cu 4.299690088416767697e-01 5.257284373025215007e-01 0.000000000000000000e+00
Cu 4.298991618101563605e-01 6.298640230516224792e-01 0.000000000000000000e+00
Cu 4.298980109388524373e-01 7.340248740447306020e-01 0.000000000000000000e+00
Cu 4.299514628637242097e-01 8.381880057254779137e-01 0.000000000000000000e+00
Cu 4.300358679425120845e-01 9.423284221269829786e-01 0.000000000000000000e+00
Cu 5.385971074941203751e-01 5.532802914284837802e-03 0.000000000000000000e+00
Cu 5.383196914912273812e-01 1.095294542629074719e-01 0.000000000000000000e+00
Cu 5.381047256358519881e-01 2.135745527590010018e-01 0.000000000000000000e+00
Cu 5.379523143164897103e-01 3.176560678228596557e-01 0.000000000000000000e+00
Cu 5.378537524989851493e-01 4.217529544039606559e-01 0.000000000000000000e+00
Cu 5.377826125678097924e-01 5.258267624033049481e-01 0.000000000000000000e+00
Cu 5.376473311756759799e-01 6.298177048197584060e-01 0.000000000000000000e+00
Cu 5.375469136873261000e-01 7.338943841592112660e-01 0.000000000000000000e+00
Cu 5.375799955480720094e-01 8.380760047217179487e-01 0.000000000000000000e+00
Cu 5.376416520885365369e-01 9.422263032348499046e-01 0.000000000000000000e+00
Cu 6.465475505598420325e-01 5.905558334422624130e-03 0.000000000000000000e+00
Cu 6.462398990019206924e-01 1.098351748218395485e-01 0.000000000000000000e+00
Cu 6.460026590120645507e-01 2.138183271611749092e-01 0.000000000000000000e+00
Cu 6.458398252287577135e-01 3.178449087991547795e-01 0.000000000000000000e+00
Cu 6.457523865879394309e-01 4.219012658277761507e-01 0.000000000000000000e+00
Cu 6.457231318259976094e-01 5.259620691576957219e-01 0.000000000000000000e+00
Cu 6.457127391444739128e-01 6.299649335341571676e-01 0.000000000000000000e+00
Cu 6.453063717140877786e-01 7.336651159824361113e-01 0.000000000000000000e+00
Cu 6.450747036371748955e-01 8.379583535160761709e-01 0.000000000000000000e+00
Cu 6.454445809177141724e-01 9.422182507644231153e-01 0.000000000000000000e+00
Cu 7.546523863925587161e-01 6.321486812308357156e-03 0.000000000000000000e+00
Cu 7.543073100110122553e-01 1.101674347329143211e-01 0.000000000000000000e+00
Cu 7.540406134209445277e-01 2.140701881971153464e-01 0.000000000000000000e+00
Cu 7.538590123259950593e-01 3.180208174001037946e-01 0.000000000000000000e+00
Cu 7.537670813204235820e-01 4.220121638560765387e-01 0.000000000000000000e+00
Cu 7.537693258811399843e-01 5.260408636345661471e-01 0.000000000000000000e+00
Cu 7.538253522537395890e-01 6.301061775566415557e-01 0.000000000000000000e+00
Cu 7.540000580852099787e-01 7.341922280123461819e-01 0.000000000000000000e+00
Cu 7.517510422653469471e-01 8.373542298148515250e-01 0.000000000000000000e+00
Cu 7.539010240186746481e-01 9.416648154871770648e-01 0.000000000000000000e+00
Cu 8.629425182560306329e-01 6.789921997099713537e-03 0.000000000000000000e+00
Cu 8.625538333151332449e-01 1.105357583384670023e-01 0.000000000000000000e+00
Cu 8.622529507622811451e-01 2.143381230519421921e-01 0.000000000000000000e+00
Cu 8.620473222073331554e-01 3.181861806880625365e-01 0.000000000000000000e+00
Cu 8.619448139241950857e-01 4.220726050857213640e-01 0.000000000000000000e+00
Cu 8.619478122500436879e-01 5.259948270986024577e-01 0.000000000000000000e+00
Cu 8.620958354094678810e-01 6.299530807554173384e-01 0.000000000000000000e+00
Cu 8.623144187253642956e-01 7.339275343051087086e-01 0.000000000000000000e+00
Cu 8.651426810230673503e-01 8.369446124254468211e-01 0.000000000000000000e+00
Cu 8.636573833180977156e-01 9.411428414674449794e-01 0.000000000000000000e+00
Cu 9.714464935381891264e-01 7.320586304734720551e-03 0.000000000000000000e+00
Cu 9.710108724450777773e-01 1.109509103575116451e-01 0.000000000000000000e+00
Cu 9.706761735184114004e-01 2.146322121426189056e-01 0.000000000000000000e+00
Cu 9.704504456685187908e-01 3.183482100072591026e-01 0.000000000000000000e+00
Cu 9.703439567774452268e-01 4.220849419095511479e-01 0.000000000000000000e+00
Cu 9.703805859691300162e-01 5.258209545501411064e-01 0.000000000000000000e+00
Cu 9.705981220342401183e-01 6.294984225124119481e-01 0.000000000000000000e+00
Cu 9.714048383712685641e-01 7.328741864626615587e-01 0.000000000000000000e+00
Cu 9.722042935278215614e-01 8.368571163536845381e-01 0.000000000000000000e+00
Cu 9.725527726131312223e-01 9.408106833705066618e-01 0.000000000000000000e+00
Cu 1.080188140834806187e+00 7.922026597354629718e-03 0.000000000000000000e+00
Cu 1.079707377188728001e+00 1.114237598422048725e-01 0.000000000000000000e+00
Cu 1.079346704556981562e+00 2.149640301774284612e-01 0.000000000000000000e+00
Cu 1.079112890454698936e+00 3.185188412264415292e-01 0.000000000000000000e+00
Cu 1.079021705484311200e+00 4.220673118534963297e-01 0.000000000000000000e+00
Cu 1.079103060276304316e+00 5.255819189353601040e-01 0.000000000000000000e+00
Cu 1.079447292288758797e+00 6.290186000220480134e-01 0.000000000000000000e+00
Cu 1.079946370949045109e+00 7.325599059072868124e-01 0.000000000000000000e+00
Cu 1.080490319198737614e+00 8.362275115962405359e-01 0.000000000000000000e+00
Cu 1.081178277734137883e+00 9.398668109083421207e-01 0.000000000000000000e+00
Cu 1.189183472835245059e+00 8.599359157782524021e-03 0.000000000000000000e+00
Cu 1.188667328257665412e+00 1.119636523126055078e-01 0.000000000000000000e+00
Cu 1.188297426411251356e+00 2.153465006434985285e-01 0.000000000000000000e+00
Cu 1.188073793502484765e+00 3.187169812826484705e-01 0.000000000000000000e+00
Cu 1.188006014067761740e+00 4.220576113091549231e-01 0.000000000000000000e+00
Cu 1.188116756612817682e+00 5.253655065767771637e-01 0.000000000000000000e+00
Cu 1.188387061062910144e+00 6.286959165068172206e-01 0.000000000000000000e+00
Cu 1.188777192490134471e+00 7.320914557153165303e-01 0.000000000000000000e+00
Cu 1.189303670577940730e+00 8.355302032249966038e-01 0.000000000000000000e+00
Cu 1.189992178603963557e+00 9.389652483517366699e-01 0.000000000000000000e+00
Cu 1.298437278756545021e+00 9.350483662694532641e-03 0.000000000000000000e+00
Cu 1.297906994534284042e+00 1.125746978517282171e-01 0.000000000000000000e+00
Cu 1.297555722612831808e+00 2.157902735116521975e-01 0.000000000000000000e+00
Cu 1.297364801608825946e+00 3.189628916134000236e-01 0.000000000000000000e+00
Cu 1.297322095065260861e+00 4.220884216161001068e-01 0.000000000000000000e+00
Cu 1.297412469302982041e+00 5.251996603519890616e-01 0.000000000000000000e+00
Cu 1.297620860610633198e+00 6.283435677764852567e-01 0.000000000000000000e+00
Cu 1.297954093883668003e+00 7.315453855767144464e-01 0.000000000000000000e+00
Cu 1.298439208921678523e+00 8.347992365522202141e-01 0.000000000000000000e+00
Cu 1.299097223248796062e+00 9.380782272930271448e-01 0.000000000000000000e+00
Cu 1.407940479305122894e+00 1.016004750373196951e-02 0.000000000000000000e+00
Cu 1.407433745826405014e+00 1.132484627906188701e-01 0.000000000000000000e+00
Cu 1.407144199483903346e+00 2.162934994279688550e-01 0.000000000000000000e+00
Cu 1.407020664219318373e+00 3.192610249568634817e-01 0.000000000000000000e+00
Cu 1.407012860581811520e+00 4.221616251344629256e-01 0.000000000000000000e+00
Cu 1.407083314900778870e+00 5.250420798621520113e-01 0.000000000000000000e+00
Cu 1.407226862943924406e+00 6.279596720960788359e-01 0.000000000000000000e+00
Cu 1.407474845219134574e+00 7.309544586779059827e-01 0.000000000000000000e+00
Cu 1.407876976202362629e+00 8.340345216395889105e-01 0.000000000000000000e+00
Cu 1.408483631268385050e+00 9.371684662483331651e-01 0.000000000000000000e+00
Cu 1.517669093825404714e+00 1.099124972730362165e-02 0.000000000000000000e+00
Cu 1.517247949808708363e+00 1.139535043325205360e-01 0.000000000000000000e+00
Cu 1.517085991431078584e+00 2.168264897561488769e-01 0.000000000000000000e+00
Cu 1.517084958783412096e+00 3.195838258925794428e-01 0.000000000000000000e+00
Cu 1.517146533532611308e+00 4.222523780054929232e-01 0.000000000000000000e+00
Cu 1.517203592257756917e+00 5.248923517989509957e-01 0.000000000000000000e+00
Cu 1.517253969109624734e+00 6.275734237159283913e-01 0.000000000000000000e+00
Cu 1.517360356670893973e+00 7.303534204474160241e-01 0.000000000000000000e+00
Cu 1.517617252251945104e+00 8.332569442853093866e-01 0.000000000000000000e+00
Cu 1.518120764077137697e+00 9.362565563669542623e-01 0.000000000000000000e+00
Cu 1.627583271504296381e+00 1.177533985789521419e-02 0.000000000000000000e+00
Cu 1.627349411204475516e+00 1.146229467732269580e-01 0.000000000000000000e+00
Cu 1.627413390705301444e+00 2.173153456089338409e-01 0.000000000000000000e+00
Cu 1.627606680395899730e+00 3.198608272121310492e-01 0.000000000000000000e+00
Cu 1.627773434204118574e+00 4.223261669418047481e-01 0.000000000000000000e+00
Cu 1.627821294858890377e+00 5.247737914750317811e-01 0.000000000000000000e+00
Cu 1.627748623116884730e+00 6.272484044903936518e-01 0.000000000000000000e+00
Cu 1.627644348512074401e+00 7.298115406717863296e-01 0.000000000000000000e+00
Cu 1.627661014787666005e+00 8.325283232293562152e-01 0.000000000000000000e+00
Cu 1.627964735663364637e+00 9.354050906342014082e-01 0.000000000000000000e+00
Cu 1.737620966587098970e+00 1.239381825888662830e-02 0.000000000000000000e+00
Cu 1.737751762418379808e+00 1.151346559033476630e-01 0.000000000000000000e+00
Cu 1.738183411100776787e+00 2.176216833938947603e-01 0.000000000000000000e+00
Cu 1.738625364576193100e+00 3.199745662091331155e-01 0.000000000000000000e+00
Cu 1.738889941639559789e+00 4.223361143689756680e-01 0.000000000000000000e+00
Cu 1.738931407206823376e+00 5.247262715614382511e-01 0.000000000000000000e+00
Cu 1.738748223093103062e+00 6.270947801967576840e-01 0.000000000000000000e+00
Cu 1.738383149790496240e+00 7.294609778606134798e-01 0.000000000000000000e+00
Cu 1.738021310310309264e+00 8.319663889298150039e-01 0.000000000000000000e+00
Cu 1.737951257090685653e+00 9.347287662797658658e-01 0.000000000000000000e+00
Cu 1.847674089780015683e+00 1.262576421540796863e-02 0.000000000000000000e+00
Cu 1.848520893304309576e+00 1.152586779873435441e-01 0.000000000000000000e+00
Cu 1.849491439450175800e+00 2.175122957634821053e-01 0.000000000000000000e+00
Cu 1.850126549579011570e+00 3.197994941169214345e-01 0.000000000000000000e+00
Cu 1.850410255005797255e+00 4.222544585250628257e-01 0.000000000000000000e+00
Cu 1.850447480183265325e+00 5.247715964129334720e-01 0.000000000000000000e+00
Cu 1.850236784640474141e+00 6.272319933336109044e-01 0.000000000000000000e+00
Cu 1.849670480602735978e+00 7.295293824272328642e-01 0.000000000000000000e+00
Cu 1.848762264506029096e+00 8.317966302846697690e-01 0.000000000000000000e+00
Cu 1.847970078597350518e+00 9.344447534453781401e-01 0.000000000000000000e+00
Cu 1.957532417473057285e+00 1.196683950562742703e-02 0.000000000000000000e+00
Cu 1.959878151755015008e+00 1.144720792268589249e-01 0.000000000000000000e+00
Cu 1.961349421556793704e+00 2.167343148282985243e-01 0.000000000000000000e+00
Cu 1.961959062325131953e+00 3.193511609126326589e-01 0.000000000000000000e+00
Cu 1.962210875382693676e+00 4.221008270965936338e-01 0.000000000000000000e+00
Cu 1.962245456306719094e+00 5.248846517646986731e-01 0.000000000000000000e+00
Cu 1.962061565099961769e+00 6.276391824117958373e-01 0.000000000000000000e+00
Cu 1.961516140735213076e+00 7.302648216821862048e-01 0.000000000000000000e+00
Cu 1.960103110786294733e+00 8.325380958789720953e-01 0.000000000000000000e+00
Cu 1.957808482506373959e+00 9.350541398710221497e-01 0.000000000000000000e+00
Cu 2.066765081164024576e+00 8.252612108860501658e-03 0.000000000000000000e+00
Cu 2.071893903976106177e+00 1.120370145583590438e-01 0.000000000000000000e+00
Cu 2.073344466788463958e+00 2.155595800617533808e-01 0.000000000000000000e+00
Cu 2.073975383225149738e+00 3.188184480209740324e-01 0.000000000000000000e+00
Cu 2.074224192309673143e+00 4.219312992326358369e-01 0.000000000000000000e+00
Cu 2.074257099617765387e+00 5.250042665393589436e-01 0.000000000000000000e+00
Cu 2.074073146841511672e+00 6.281225528361225052e-01 0.000000000000000000e+00
Cu 2.073504272051918118e+00 7.313911580010254987e-01 0.000000000000000000e+00
Cu 2.072111156845549473e+00 8.349254019389951154e-01 0.000000000000000000e+00
Cu 2.067033808212240586e+00 9.387204284550816347e-01 0.000000000000000000e+00
