200

Cu 0.000000000000000000e+00 4.498251813173269331e-02 0.000000000000000000e+00
Cu 0.000000000000000000e+00 1.415789788611304945e-01 0.000000000000000000e+00
Cu 0.000000000000000000e+00 2.368946635548381807e-01 0.000000000000000000e+00
Cu 0.000000000000000000e+00 3.316307198311356785e-01 0.000000000000000000e+00
Cu 0.000000000000000000e+00 4.261670283984531071e-01 0.000000000000000000e+00
Cu 0.000000000000000000e+00 5.206975290171718118e-01 0.000000000000000000e+00
Cu 0.000000000000000000e+00 6.153790384685173809e-01 0.000000000000000000e+00
Cu 0.000000000000000000e+00 7.103858028471038422e-01 0.000000000000000000e+00
Cu 0.000000000000000000e+00 8.060574587804393287e-01 0.000000000000000000e+00
Cu 0.000000000000000000e+00 9.030308210078141773e-01 0.000000000000000000e+00
Cu 1.298181497337817791e-01 4.979201176316002536e-02 0.000000000000000000e+00
Cu 1.285349609910815538e-01 1.432411325490742515e-01 0.000000000000000000e+00
Cu 1.284849061423696814e-01 2.375905117313669435e-01 0.000000000000000000e+00
Cu 1.284280945538367191e-01 3.319657109700496211e-01 0.000000000000000000e+00
Cu 1.283322123597225584e-01 4.262843370964491396e-01 0.000000000000000000e+00
Cu 1.281843703391786493e-01 5.206342564008910045e-01 0.000000000000000000e+00
Cu 1.279961440860531152e-01 6.151074414469159812e-01 0.000000000000000000e+00
Cu 1.277987543061621933e-01 7.097724218511152205e-01 0.000000000000000000e+00
Cu 1.276358274301020446e-01 8.045239472676385395e-01 0.000000000000000000e+00
Cu 1.287118288223856322e-01 8.984870561947720935e-01 0.000000000000000000e+00
Cu 2.590512181644942791e-01 5.205658864127766378e-02 0.000000000000000000e+00
Cu 2.579803231296577404e-01 1.452988831554692661e-01 0.000000000000000000e+00
Cu 2.573962332540730702e-01 2.388174320867859635e-01 0.000000000000000000e+00
Cu 2.571568566818423496e-01 3.326655199173048638e-01 0.000000000000000000e+00
Cu 2.569082085221129907e-01 4.266124117637755120e-01 0.000000000000000000e+00
Cu 2.566032057110494424e-01 5.206273113383388385e-01 0.000000000000000000e+00
Cu 2.562720695817763961e-01 6.147295227828255548e-01 0.000000000000000000e+00
Cu 2.559988303219850048e-01 7.088681371861079716e-01 0.000000000000000000e+00
Cu 2.561318715878089236e-01 8.028101769182196534e-01 0.000000000000000000e+00
Cu 2.568133830386277738e-01 8.966001767962847868e-01 0.000000000000000000e+00
Cu 3.881861415752606570e-01 5.364845730376349708e-02 0.000000000000000000e+00
Cu 3.873207510800127373e-01 1.468549146282850382e-01 0.000000000000000000e+00
Cu 3.866787568683897613e-01 2.401530342876300184e-01 0.000000000000000000e+00
Cu 3.862463105101188732e-01 3.336033563147711711e-01 0.000000000000000000e+00
Cu 3.858527417723698894e-01 4.271455536836261668e-01 0.000000000000000000e+00
Cu 3.853772230816356892e-01 5.207260652496278341e-01 0.000000000000000000e+00
Cu 3.848917249530695028e-01 6.143795694639343496e-01 0.000000000000000000e+00
Cu 3.845552030503194274e-01 7.080736709243049543e-01 0.000000000000000000e+00
Cu 3.844883241350641745e-01 8.017854214269075630e-01 0.000000000000000000e+00
Cu 3.847297798221534504e-01 8.955789273365382108e-01 0.000000000000000000e+00
Cu 5.173252105170244031e-01 5.491320662720634849e-02 0.000000000000000000e+00
Cu 5.166237929941839280e-01 1.480992962600665153e-01 0.000000000000000000e+00
Cu 5.160617522703929705e-01 2.413284262140005243e-01 0.000000000000000000e+00
Cu 5.156213065732946355e-01 3.346117688813407542e-01 0.000000000000000000e+00
Cu 5.152191771307802481e-01 4.278990684335004513e-01 0.000000000000000000e+00
Cu 5.146072449282559358e-01 5.210408947760661880e-01 0.000000000000000000e+00
Cu 5.138406689445690345e-01 6.141932543546407830e-01 0.000000000000000000e+00
Cu 5.132074901796971345e-01 7.076114505089942108e-01 0.000000000000000000e+00
Cu 5.127484886792429419e-01 8.012881410238158475e-01 0.000000000000000000e+00
Cu 5.124742881751924717e-01 8.951632216536115072e-01 0.000000000000000000e+00
Cu 6.465131392411942457e-01 5.595134455892925018e-02 0.000000000000000000e+00
Cu 6.459532494456707852e-01 1.491071348760195647e-01 0.000000000000000000e+00
Cu 6.455023878797103709e-01 2.423052552515708724e-01 0.000000000000000000e+00
Cu 6.451608556196053446e-01 3.355473160487558171e-01 0.000000000000000000e+00
Cu 6.448479921574956641e-01 4.287754929031400986e-01 0.000000000000000000e+00
Cu 6.444870077527826702e-01 5.218509205874568568e-01 0.000000000000000000e+00
Cu 6.432328223340024742e-01 6.143177095739046356e-01 0.000000000000000000e+00
Cu 6.418139420181321331e-01 7.073206917297538698e-01 0.000000000000000000e+00
Cu 6.408564310770805683e-01 8.013207373447204240e-01 0.000000000000000000e+00
Cu 6.399676408258762050e-01 8.955280540412310364e-01 0.000000000000000000e+00
Cu 7.757929448195016731e-01 5.679515192847812977e-02 0.000000000000000000e+00
Cu 7.753560775057449783e-01 1.498990153067060183e-01 0.000000000000000000e+00
Cu 7.750138780895947654e-01 2.430597450908094925e-01 0.000000000000000000e+00
Cu 7.747709777462509217e-01 3.362918870592070397e-01 0.000000000000000000e+00
Cu 7.746427860055156156e-01 4.295914186454417028e-01 0.000000000000000000e+00
Cu 7.744122343695035715e-01 5.228656664048774161e-01 0.000000000000000000e+00
Cu 7.743367678408711319e-01 6.159215606158106038e-01 0.000000000000000000e+00
Cu 7.702878586727063270e-01 7.066623363408017777e-01 0.000000000000000000e+00
Cu 7.677794870740123345e-01 8.016131145712137585e-01 0.000000000000000000e+00
Cu 7.675409757096292029e-01 8.972598526053501278e-01 0.000000000000000000e+00
Cu 9.052139099560952973e-01 5.746239779653465607e-02 0.000000000000000000e+00
Cu 9.048837495957052779e-01 1.504851467846534951e-01 0.000000000000000000e+00
Cu 9.046268571592442909e-01 2.435739597105654741e-01 0.000000000000000000e+00
Cu 9.044748521001256814e-01 3.367585704809342162e-01 0.000000000000000000e+00
Cu 9.044090807606388616e-01 4.300760856827552936e-01 0.000000000000000000e+00
Cu 9.045674194189091688e-01 5.235939571948101667e-01 0.000000000000000000e+00
Cu 9.041711927972467810e-01 6.173740429227503324e-01 0.000000000000000000e+00
Cu 9.061504310151696773e-01 7.117787452111166147e-01 0.000000000000000000e+00
Cu 8.855608152221304818e-01 7.989666331486737771e-01 0.000000000000000000e+00
Cu 8.997984341515020690e-01 8.956648029079613549e-01 0.000000000000000000e+00
Cu 1.034830688078134608e+00 5.797446291719147993e-02 0.000000000000000000e+00
Cu 1.034590318397464292e+00 1.508838363678463856e-01 0.000000000000000000e+00
Cu 1.034409055975896052e+00 2.438524278166869508e-01 0.000000000000000000e+00
Cu 1.034311879048582794e+00 3.369045647197460580e-01 0.000000000000000000e+00
Cu 1.034361664066103081e+00 4.300778170841887404e-01 0.000000000000000000e+00
Cu 1.034440450562996716e+00 5.234445527039711665e-01 0.000000000000000000e+00
Cu 1.035321930077940156e+00 6.170720379490682861e-01 0.000000000000000000e+00
Cu 1.034017497007270636e+00 7.113499777470132512e-01 0.000000000000000000e+00
Cu 1.055371143202543216e+00 7.982063719220748865e-01 0.000000000000000000e+00
Cu 1.042075007465514513e+00 8.949081448569108366e-01 0.000000000000000000e+00
Cu 1.164693768233138416e+00 5.836091500242435171e-02 0.000000000000000000e+00
Cu 1.164532530225261153e+00 1.511277469578581889e-01 0.000000000000000000e+00
Cu 1.164424232311289442e+00 2.439265171217968320e-01 0.000000000000000000e+00
Cu 1.164416827245136288e+00 3.367529617424545041e-01 0.000000000000000000e+00
Cu 1.164532906172351945e+00 4.296033850317367286e-01 0.000000000000000000e+00
Cu 1.165009289774523227e+00 5.224050261081035762e-01 0.000000000000000000e+00
Cu 1.165563623174718844e+00 6.149964720161704701e-01 0.000000000000000000e+00
Cu 1.170294584696885076e+00 7.052709142601039094e-01 0.000000000000000000e+00
Cu 1.173642443308347216e+00 7.997785277629618772e-01 0.000000000000000000e+00
Cu 1.174869933776726327e+00 8.950176880720097650e-01 0.000000000000000000e+00
Cu 1.294840692389654491e+00 5.865906265291263855e-02 0.000000000000000000e+00
Cu 1.294752366155420553e+00 1.512643704879164108e-01 0.000000000000000000e+00
Cu 1.294739503860686369e+00 2.438559760792507469e-01 0.000000000000000000e+00
Cu 1.294843192199437665e+00 3.363938200279316115e-01 0.000000000000000000e+00
Cu 1.295166153441681178e+00 4.288200489594823916e-01 0.000000000000000000e+00
Cu 1.295781115228102021e+00 5.210446558732145794e-01 0.000000000000000000e+00
Cu 1.297525821780618926e+00 6.126774946599683469e-01 0.000000000000000000e+00
Cu 1.299652362674611039e+00 7.049080457092935514e-01 0.000000000000000000e+00
Cu 1.301513166983821357e+00 7.982095722730172538e-01 0.000000000000000000e+00
Cu 1.303418110486904258e+00 8.917560824189734170e-01 0.000000000000000000e+00
Cu 1.425282845587019454e+00 5.890949636194725558e-02 0.000000000000000000e+00
Cu 1.425272464931973904e+00 1.513513248673787892e-01 0.000000000000000000e+00
Cu 1.425381415048718736e+00 2.437246214483636264e-01 0.000000000000000000e+00
Cu 1.425648048331847217e+00 3.359596524132472672e-01 0.000000000000000000e+00
Cu 1.426126927192055582e+00 4.280105728496404471e-01 0.000000000000000000e+00
Cu 1.427018829772627839e+00 5.198250403843158729e-01 0.000000000000000000e+00
Cu 1.428259523807699161e+00 6.116959717130122653e-01 0.000000000000000000e+00
Cu 1.429594317398799497e+00 7.039818603239132999e-01 0.000000000000000000e+00
Cu 1.430984017885325477e+00 7.966871714070496990e-01 0.000000000000000000e+00
Cu 1.432372282041815881e+00 8.896772576007895283e-01 0.000000000000000000e+00
Cu 1.555997237685325496e+00 5.914442357070403417e-02 0.000000000000000000e+00
Cu 1.556083904613396296e+00 1.514429878269989982e-01 0.000000000000000000e+00
Cu 1.556357683442952000e+00 2.436156304604474576e-01 0.000000000000000000e+00
Cu 1.556801180947003482e+00 3.355864418553731188e-01 0.000000000000000000e+00
Cu 1.557429418893436779e+00 4.273473610734271344e-01 0.000000000000000000e+00
Cu 1.558222952073819556e+00 5.190256842952946092e-01 0.000000000000000000e+00
Cu 1.559101175010806362e+00 6.108434862034554103e-01 0.000000000000000000e+00
Cu 1.560022202794333124e+00 7.029554140542423335e-01 0.000000000000000000e+00
Cu 1.560994315942097588e+00 7.953976862111316048e-01 0.000000000000000000e+00
Cu 1.561987246057022549e+00 8.881057248572392648e-01 0.000000000000000000e+00
Cu 1.686919547932920205e+00 5.936773669787399899e-02 0.000000000000000000e+00
Cu 1.687152040144441312e+00 1.515647255749112410e-01 0.000000000000000000e+00
Cu 1.687651166913198830e+00 2.435771013260198403e-01 0.000000000000000000e+00
Cu 1.688313165103921598e+00 3.353334931531714025e-01 0.000000000000000000e+00
Cu 1.689030679798744883e+00 4.268846881690375739e-01 0.000000000000000000e+00
Cu 1.689704869247538044e+00 5.183877985001847932e-01 0.000000000000000000e+00
Cu 1.690292637884124760e+00 6.100324293045259472e-01 0.000000000000000000e+00
Cu 1.690830383780616897e+00 7.019613169063959601e-01 0.000000000000000000e+00
Cu 1.691398345995014152e+00 7.942260148554193266e-01 0.000000000000000000e+00
Cu 1.692075666000372403e+00 8.867547409361907773e-01 0.000000000000000000e+00
Cu 1.817943321283362890e+00 5.952784443641695455e-02 0.000000000000000000e+00
Cu 1.818420303092041834e+00 1.516826147478196884e-01 0.000000000000000000e+00
Cu 1.819255489118739799e+00 2.435788440495611495e-01 0.000000000000000000e+00
Cu 1.820213314043687136e+00 3.351654096534978922e-01 0.000000000000000000e+00
Cu 1.821064187524089384e+00 4.265326157343656832e-01 0.000000000000000000e+00
Cu 1.821645029531117288e+00 5.178495537597173071e-01 0.000000000000000000e+00
Cu 1.821927261957943855e+00 6.093024610636849081e-01 0.000000000000000000e+00
Cu 1.822022815235017079e+00 7.010495625273036602e-01 0.000000000000000000e+00
Cu 1.822124902689661097e+00 7.931683988406005303e-01 0.000000000000000000e+00
Cu 1.822446426667246877e+00 8.855938606697326687e-01 0.000000000000000000e+00
Cu 1.948913664472233576e+00 5.948694716137334360e-02 0.000000000000000000e+00
Cu 1.949823725935956320e+00 1.516713866287618118e-01 0.000000000000000000e+00
Cu 1.951186698406663256e+00 2.434816368872119163e-01 0.000000000000000000e+00
Cu 1.952579557237984931e+00 3.349310087889709187e-01 0.000000000000000000e+00
Cu 1.953638679541453760e+00 4.261936996354154794e-01 0.000000000000000000e+00
Cu 1.954150222657937475e+00 5.174329782826253554e-01 0.000000000000000000e+00
Cu 1.954090712412035913e+00 6.087651414787859094e-01 0.000000000000000000e+00
Cu 1.953631130039100494e+00 7.003460275981310268e-01 0.000000000000000000e+00
Cu 1.953102402561993856e+00 7.923373783487529520e-01 0.000000000000000000e+00
Cu 1.952905258796106658e+00 8.847373313957186403e-01 0.000000000000000000e+00
Cu 2.079598960236232585e+00 5.897540779563927027e-02 0.000000000000000000e+00
Cu 2.081306214120522746e+00 1.512725499882222879e-01 0.000000000000000000e+00
Cu 2.083520628760981097e+00 2.429887049303596502e-01 0.000000000000000000e+00
Cu 2.085496959723079691e+00 3.343638242847987718e-01 0.000000000000000000e+00
Cu 2.086768407296952343e+00 4.257475535577695536e-01 0.000000000000000000e+00
Cu 2.087231813997818985e+00 5.172109938439619636e-01 0.000000000000000000e+00
Cu 2.086865275298626976e+00 6.086482738355311062e-01 0.000000000000000000e+00
Cu 2.085731718992298589e+00 7.001248877794271630e-01 0.000000000000000000e+00
Cu 2.084268762582826007e+00 7.919805320956145867e-01 0.000000000000000000e+00
Cu 2.083202810714087416e+00 8.844432800745797296e-01 0.000000000000000000e+00
Cu 2.209585961372705576e+00 5.747376263467081359e-02 0.000000000000000000e+00
Cu 2.212886046568374621e+00 1.499762403345985262e-01 0.000000000000000000e+00
Cu 2.216456780299003171e+00 2.415469560954215389e-01 0.000000000000000000e+00
Cu 2.218977803621500211e+00 3.331292363863218586e-01 0.000000000000000000e+00
Cu 2.220307492994290754e+00 4.251103123353102142e-01 0.000000000000000000e+00
Cu 2.220741148760448258e+00 5.172288567483206423e-01 0.000000000000000000e+00
Cu 2.220257010983082147e+00 6.092531974171656595e-01 0.000000000000000000e+00
Cu 2.218519092824342120e+00 7.009168821776277092e-01 0.000000000000000000e+00
Cu 2.215636658395901293e+00 7.925957743045065618e-01 0.000000000000000000e+00
Cu 2.212916806073591314e+00 8.852226184424624167e-01 0.000000000000000000e+00
Cu 2.337905215842734030e+00 5.373338111767262532e-02 0.000000000000000000e+00
Cu 2.344969038839282760e+00 1.465293205297660828e-01 0.000000000000000000e+00
Cu 2.350206171023787594e+00 2.383741092558644969e-01 0.000000000000000000e+00
Cu 2.352693931272012318e+00 3.312106747255082473e-01 0.000000000000000000e+00
Cu 2.354041934648964496e+00 4.242897244126650480e-01 0.000000000000000000e+00
Cu 2.354459454088445369e+00 5.174404160013515996e-01 0.000000000000000000e+00
Cu 2.353926642672118597e+00 6.105646277049762150e-01 0.000000000000000000e+00
Cu 2.352193136734634038e+00 7.034805807133550637e-01 0.000000000000000000e+00
Cu 2.347610061088855726e+00 7.954283023624116877e-01 0.000000000000000000e+00
Cu 2.341076709456433758e+00 8.883239323236633567e-01 0.000000000000000000e+00
Cu 2.461357417037483675e+00 4.170735336513594488e-02 0.000000000000000000e+00
Cu 2.478773161892048105e+00 1.383633846300367509e-01 0.000000000000000000e+00
Cu 2.483661901117578008e+00 2.342185949125964450e-01 0.000000000000000000e+00
Cu 2.486470177655959901e+00 3.290696250630351094e-01 0.000000000000000000e+00
Cu 2.487825747531569931e+00 4.234234293725486209e-01 0.000000000000000000e+00
Cu 2.488234874073182112e+00 5.176676549902602398e-01 0.000000000000000000e+00
Cu 2.487680169208783987e+00 6.120818000654324464e-01 0.000000000000000000e+00
Cu 2.485622042237981333e+00 7.070428004424355040e-01 0.000000000000000000e+00
Cu 2.481394864226344588e+00 8.030284897147631495e-01 0.000000000000000000e+00
Cu 2.464514956251553812e+00 8.998320308712270954e-01 0.000000000000000000e+00
