200

Cu 0.000000000000000000e+00 4.111310464018545774e-02 0.000000000000000000e+00
Cu 0.000000000000000000e+00 1.384510347483321746e-01 0.000000000000000000e+00
Cu 0.000000000000000000e+00 2.346185856607648779e-01 0.000000000000000000e+00
Cu 0.000000000000000000e+00 3.302560047328790827e-01 0.000000000000000000e+00
Cu 0.000000000000000000e+00 4.257122618271665937e-01 0.000000000000000000e+00
Cu 0.000000000000000000e+00 5.211645256449080055e-01 0.000000000000000000e+00
Cu 0.000000000000000000e+00 6.167554510413202351e-01 0.000000000000000000e+00
Cu 0.000000000000000000e+00 7.126441804222294341e-01 0.000000000000000000e+00
Cu 0.000000000000000000e+00 8.091427068200552908e-01 0.000000000000000000e+00
Cu 0.000000000000000000e+00 9.068327397620761232e-01 0.000000000000000000e+00
Cu 1.277907740799559821e-01 4.557850693659749181e-02 0.000000000000000000e+00
Cu 1.265688100697937579e-01 1.399933475032900665e-01 0.000000000000000000e+00
Cu 1.265125210359284436e-01 2.352643493751491177e-01 0.000000000000000000e+00
Cu 1.264567213340347940e-01 3.305675351623325042e-01 0.000000000000000000e+00
Cu 1.263660655856713444e-01 4.258221874625860437e-01 0.000000000000000000e+00
Cu 1.262290180208336943e-01 5.211073718278805833e-01 0.000000000000000000e+00
Cu 1.260559128111532479e-01 6.165057404999498836e-01 0.000000000000000000e+00
Cu 1.258747460262282514e-01 7.120782255716084919e-01 0.000000000000000000e+00
Cu 1.257306389564774585e-01 8.077237358301334602e-01 0.000000000000000000e+00
Cu 1.267527240370666664e-01 9.026212688426332731e-01 0.000000000000000000e+00
Cu 2.550303393901852123e-01 4.768615246238262773e-02 0.000000000000000000e+00
Cu 2.540002454140296573e-01 1.419214189777657786e-01 0.000000000000000000e+00
Cu 2.534347192605712062e-01 2.364145495298935473e-01 0.000000000000000000e+00
Cu 2.532006619423014526e-01 3.312238794238256956e-01 0.000000000000000000e+00
Cu 2.529647010897400627e-01 4.261308565114409475e-01 0.000000000000000000e+00
Cu 2.526814761841964518e-01 5.211037859481331136e-01 0.000000000000000000e+00
Cu 2.523789529597803005e-01 6.161569362301201336e-01 0.000000000000000000e+00
Cu 2.521356190714910683e-01 7.112377286815728672e-01 0.000000000000000000e+00
Cu 2.522769389818443342e-01 8.061255058779560612e-01 0.000000000000000000e+00
Cu 2.529338830896590840e-01 9.008727493084129900e-01 0.000000000000000000e+00
Cu 3.821746113254298471e-01 4.918329888897261110e-02 0.000000000000000000e+00
Cu 3.813363296807191216e-01 1.433866628117376474e-01 0.000000000000000000e+00
Cu 3.807129200350671261e-01 2.376758882168595599e-01 0.000000000000000000e+00
Cu 3.802927267623537610e-01 3.321099149224069347e-01 0.000000000000000000e+00
Cu 3.799169544999714265e-01 4.266341153789813823e-01 0.000000000000000000e+00
Cu 3.794737673674821732e-01 5.211979660969706662e-01 0.000000000000000000e+00
Cu 3.790326553393935094e-01 6.158306085097000615e-01 0.000000000000000000e+00
Cu 3.787399220465120231e-01 7.104952257503833746e-01 0.000000000000000000e+00
Cu 3.787004397878477868e-01 8.051686240725458577e-01 0.000000000000000000e+00
Cu 3.789437408446556521e-01 8.999173675314819931e-01 0.000000000000000000e+00
Cu 5.093267280533102515e-01 5.038409937919164500e-02 0.000000000000000000e+00
Cu 5.086408852344833642e-01 1.445667758778824419e-01 0.000000000000000000e+00
Cu 5.080913798500837908e-01 2.387906707599382339e-01 0.000000000000000000e+00
Cu 5.076628058378762631e-01 3.330665500560623382e-01 0.000000000000000000e+00
Cu 5.072761490864686751e-01 4.273465658867132699e-01 0.000000000000000000e+00
Cu 5.067038917177102419e-01 5.214924572508643497e-01 0.000000000000000000e+00
Cu 5.060020957398136954e-01 6.156529705239457417e-01 0.000000000000000000e+00
Cu 5.054419832800639556e-01 7.100618685099604477e-01 0.000000000000000000e+00
Cu 5.050454547433157471e-01 8.047036587197079482e-01 0.000000000000000000e+00
Cu 5.048056480295726178e-01 8.995221571334047761e-01 0.000000000000000000e+00
Cu 6.365325539480357619e-01 5.138088047549217025e-02 0.000000000000000000e+00
Cu 6.359774363034724765e-01 1.455304904749612771e-01 0.000000000000000000e+00
Cu 6.355313347327605777e-01 2.397215498843021098e-01 0.000000000000000000e+00
Cu 6.351947452512927139e-01 3.339549621798093004e-01 0.000000000000000000e+00
Cu 6.348957390502726339e-01 4.281761440143126984e-01 0.000000000000000000e+00
Cu 6.345520627460091712e-01 5.222503345195044222e-01 0.000000000000000000e+00
Cu 6.333976087896115992e-01 6.157605629097226974e-01 0.000000000000000000e+00
Cu 6.321033003347322765e-01 7.097834754827105908e-01 0.000000000000000000e+00
Cu 6.312619633795253371e-01 8.047325233607541817e-01 0.000000000000000000e+00
Cu 6.304579047837056693e-01 8.998593925440174779e-01 0.000000000000000000e+00
Cu 7.638364236223975645e-01 5.220360989999735246e-02 0.000000000000000000e+00
Cu 7.633940001299466260e-01 1.462973708728157463e-01 0.000000000000000000e+00
Cu 7.630474543951457633e-01 2.404464796381806657e-01 0.000000000000000000e+00
Cu 7.628034572047411865e-01 3.346640656095281607e-01 0.000000000000000000e+00
Cu 7.626741066418636361e-01 4.289452079085679381e-01 0.000000000000000000e+00
Cu 7.624703276863905588e-01 5.232036976976671694e-01 0.000000000000000000e+00
Cu 7.623784535104962679e-01 6.172452258188639851e-01 0.000000000000000000e+00
Cu 7.586801145211812258e-01 7.091524096145787048e-01 0.000000000000000000e+00
Cu 7.563437703350349706e-01 8.050003016743844109e-01 0.000000000000000000e+00
Cu 7.562516652105837345e-01 9.014488196296975842e-01 0.000000000000000000e+00
Cu 8.912885002128582146e-01 5.286990978242996075e-02 0.000000000000000000e+00
Cu 8.909423948702401841e-01 1.468783585343969023e-01 0.000000000000000000e+00
Cu 8.906731437069548285e-01 2.409509091799519886e-01 0.000000000000000000e+00
Cu 8.905104823887787235e-01 3.351145803704864701e-01 0.000000000000000000e+00
Cu 8.904426007347844285e-01 4.294035100938968785e-01 0.000000000000000000e+00
Cu 8.905828801756928703e-01 5.238791170707681744e-01 0.000000000000000000e+00
Cu 8.902651709022619819e-01 6.185999443852723267e-01 0.000000000000000000e+00
Cu 8.919856670756345363e-01 7.138722791460100359e-01 0.000000000000000000e+00
Cu 8.731459168318616015e-01 8.025337597245241206e-01 0.000000000000000000e+00
Cu 8.863405679576115137e-01 8.999226795749432073e-01 0.000000000000000000e+00
Cu 1.018943365079662433e+00 5.340095629621302575e-02 0.000000000000000000e+00
Cu 1.018677201989508063e+00 1.472921813178219297e-01 0.000000000000000000e+00
Cu 1.018474792310915422e+00 2.412412803397589178e-01 0.000000000000000000e+00
Cu 1.018361559932949412e+00 3.352700927755787874e-01 0.000000000000000000e+00
Cu 1.018392893470275729e+00 4.294131560110457935e-01 0.000000000000000000e+00
Cu 1.018475575443674952e+00 5.237363835600392648e-01 0.000000000000000000e+00
Cu 1.019270730439388872e+00 6.183037264228269381e-01 0.000000000000000000e+00
Cu 1.018226152591692912e+00 7.134442634842068642e-01 0.000000000000000000e+00
Cu 1.037843927775103259e+00 8.017863262113845702e-01 0.000000000000000000e+00
Cu 1.025608426023779440e+00 8.991664429002418357e-01 0.000000000000000000e+00
Cu 1.146851335428383800e+00 5.382498135640970821e-02 0.000000000000000000e+00
Cu 1.146654706840675164e+00 1.475701939313537880e-01 0.000000000000000000e+00
Cu 1.146517325015975475e+00 2.413477828863676011e-01 0.000000000000000000e+00
Cu 1.146483742536427153e+00 3.351527984057676712e-01 0.000000000000000000e+00
Cu 1.146579937343848554e+00 4.289805277469130873e-01 0.000000000000000000e+00
Cu 1.147014866537640732e+00 5.227634752049078459e-01 0.000000000000000000e+00
Cu 1.147579334219239744e+00 6.163364822795636133e-01 0.000000000000000000e+00
Cu 1.151960795152717321e+00 7.077741419765306574e-01 0.000000000000000000e+00
Cu 1.155146627542455784e+00 8.031731732872881002e-01 0.000000000000000000e+00
Cu 1.156245901772839257e+00 8.992069322638426287e-01 0.000000000000000000e+00
Cu 1.275049900116408619e+00 5.417651502816530490e-02 0.000000000000000000e+00
Cu 1.274917691723863822e+00 1.477565618655971025e-01 0.000000000000000000e+00
Cu 1.274866653836915775e+00 2.413256478536743577e-01 0.000000000000000000e+00
Cu 1.274936778848837049e+00 3.348445384805514569e-01 0.000000000000000000e+00
Cu 1.275223094609683194e+00 4.282583600999127493e-01 0.000000000000000000e+00
Cu 1.275806079178309016e+00 5.214786245859963643e-01 0.000000000000000000e+00
Cu 1.277444424039808402e+00 6.141511767530813959e-01 0.000000000000000000e+00
Cu 1.279447783509040537e+00 7.073947055939675543e-01 0.000000000000000000e+00
Cu 1.281200282401106838e+00 8.016343983827936004e-01 0.000000000000000000e+00
Cu 1.283039277726056859e+00 8.960858445288203411e-01 0.000000000000000000e+00
Cu 1.403551501869467755e+00 5.449231030250548113e-02 0.000000000000000000e+00
Cu 1.403489774519741884e+00 1.479043091036635615e-01 0.000000000000000000e+00
Cu 1.403552413077424843e+00 2.412521141265512314e-01 0.000000000000000000e+00
Cu 1.403775341854416769e+00 3.344682240662121830e-01 0.000000000000000000e+00
Cu 1.404212840637851345e+00 4.275082336688761919e-01 0.000000000000000000e+00
Cu 1.405049006407738776e+00 5.203268867714876400e-01 0.000000000000000000e+00
Cu 1.406219481795079052e+00 6.132046785990779014e-01 0.000000000000000000e+00
Cu 1.407483221182171951e+00 7.064741007068037204e-01 0.000000000000000000e+00
Cu 1.408817984070012130e+00 8.001296475527629459e-01 0.000000000000000000e+00
Cu 1.410186431392488560e+00 8.940423528859735569e-01 0.000000000000000000e+00
Cu 1.532335075313436379e+00 5.480068120407647486e-02 0.000000000000000000e+00
Cu 1.532364471161062003e+00 1.480631492130131954e-01 0.000000000000000000e+00
Cu 1.532583918598642958e+00 2.412046816443465247e-01 0.000000000000000000e+00
Cu 1.532976662043105343e+00 3.341513885259268513e-01 0.000000000000000000e+00
Cu 1.533555254789419786e+00 4.268968531532948418e-01 0.000000000000000000e+00
Cu 1.534298580417555735e+00 5.195651735160504714e-01 0.000000000000000000e+00
Cu 1.535129238622451320e+00 6.123677758781901348e-01 0.000000000000000000e+00
Cu 1.536012434253723358e+00 7.054478602606887305e-01 0.000000000000000000e+00
Cu 1.536964605461325739e+00 7.988363801323259406e-01 0.000000000000000000e+00
Cu 1.537963795351597662e+00 8.924738865719823444e-01 0.000000000000000000e+00
Cu 1.661339315238056002e+00 5.510263169672968697e-02 0.000000000000000000e+00
Cu 1.661509564047357612e+00 1.482551473668189956e-01 0.000000000000000000e+00
Cu 1.661947235461869177e+00 2.412275812121920660e-01 0.000000000000000000e+00
Cu 1.662551569541354635e+00 3.339506328145874225e-01 0.000000000000000000e+00
Cu 1.663217649154242306e+00 4.264740652641051399e-01 0.000000000000000000e+00
Cu 1.663849396115194779e+00 5.189503470464853496e-01 0.000000000000000000e+00
Cu 1.664407247568023385e+00 6.115620399631648274e-01 0.000000000000000000e+00
Cu 1.664930908844314938e+00 7.044454604407968112e-01 0.000000000000000000e+00
Cu 1.665502613310249513e+00 7.976498473280015933e-01 0.000000000000000000e+00
Cu 1.666202544581134593e+00 8.911074593145836831e-01 0.000000000000000000e+00
Cu 1.790461655548375219e+00 5.534574034250559771e-02 0.000000000000000000e+00
Cu 1.790871560643712668e+00 1.484450246854701616e-01 0.000000000000000000e+00
Cu 1.791637449515191882e+00 2.412894637830453048e-01 0.000000000000000000e+00
Cu 1.792531530763942893e+00 3.338296739980848304e-01 0.000000000000000000e+00
Cu 1.793330539651163624e+00 4.261536886290956949e-01 0.000000000000000000e+00
Cu 1.793876078945782826e+00 5.184265424097310726e-01 0.000000000000000000e+00
Cu 1.794142630400556770e+00 6.108300758899707361e-01 0.000000000000000000e+00
Cu 1.794242776199101774e+00 7.035186559192465605e-01 0.000000000000000000e+00
Cu 1.794367218704073563e+00 7.965682489806903410e-01 0.000000000000000000e+00
Cu 1.794723904474302856e+00 8.899173102624894360e-01 0.000000000000000000e+00
Cu 1.919552833127023739e+00 5.539422860414631306e-02 0.000000000000000000e+00
Cu 1.920389103759571503e+00 1.485086240615290376e-01 0.000000000000000000e+00
Cu 1.921671955862605641e+00 2.412519669827891955e-01 0.000000000000000000e+00
Cu 1.922993147028086103e+00 3.336393505227485679e-01 0.000000000000000000e+00
Cu 1.923998906359061456e+00 4.258414637380334433e-01 0.000000000000000000e+00
Cu 1.924480831652410684e+00 5.180183552168712291e-01 0.000000000000000000e+00
Cu 1.924417991119146354e+00 6.102844508363716169e-01 0.000000000000000000e+00
Cu 1.923980487141989437e+00 7.027930006297187226e-01 0.000000000000000000e+00
Cu 1.923492805964734931e+00 7.957033452806694385e-01 0.000000000000000000e+00
Cu 1.923343304473136728e+00 8.890169905298834774e-01 0.000000000000000000e+00
Cu 2.048390634020518242e+00 5.498464044712329801e-02 0.000000000000000000e+00
Cu 2.050011445054022108e+00 1.481915024391376179e-01 0.000000000000000000e+00
Cu 2.052126562847949476e+00 2.408224679501158316e-01 0.000000000000000000e+00
Cu 2.054017546869372879e+00 3.331179555813219006e-01 0.000000000000000000e+00
Cu 2.055232378816294947e+00 4.254204769737786052e-01 0.000000000000000000e+00
Cu 2.055670253147316107e+00 5.177989172563487452e-01 0.000000000000000000e+00
Cu 2.055311467524428615e+00 6.101506157599895230e-01 0.000000000000000000e+00
Cu 2.054220724915524876e+00 7.025394571346285089e-01 0.000000000000000000e+00
Cu 2.052823991500505763e+00 7.952990765276624074e-01 0.000000000000000000e+00
Cu 2.051822988866798703e+00 8.886592621818658611e-01 0.000000000000000000e+00
Cu 2.176581579171909642e+00 5.361091717629278691e-02 0.000000000000000000e+00
Cu 2.179764711706985381e+00 1.469925164373773463e-01 0.000000000000000000e+00
Cu 2.183195193863504358e+00 2.394598204030337352e-01 0.000000000000000000e+00
Cu 2.185609473626619170e+00 3.319414839068592915e-01 0.000000000000000000e+00
Cu 2.186881495344771054e+00 4.248099403056909140e-01 0.000000000000000000e+00
Cu 2.187292197303508434e+00 5.178131733963773353e-01 0.000000000000000000e+00
Cu 2.186821928090722178e+00 6.107213732376080007e-01 0.000000000000000000e+00
Cu 2.185152888579710684e+00 7.032778784529315486e-01 0.000000000000000000e+00
Cu 2.182382098789937164e+00 7.958450416251237058e-01 0.000000000000000000e+00
Cu 2.179761634763692779e+00 8.893420704546323163e-01 0.000000000000000000e+00
Cu 2.303214597176173495e+00 5.005839053426148350e-02 0.000000000000000000e+00
Cu 2.310054871859949621e+00 1.436855828110192856e-01 0.000000000000000000e+00
Cu 2.315060057169977092e+00 2.364166240231450056e-01 0.000000000000000000e+00
Cu 2.317445542934238656e+00 3.300972607530040515e-01 0.000000000000000000e+00
Cu 2.318727309224766664e+00 4.240208202680877947e-01 0.000000000000000000e+00
Cu 2.319123267062250360e+00 5.180145804306132140e-01 0.000000000000000000e+00
Cu 2.318615450985645587e+00 6.119796009997983122e-01 0.000000000000000000e+00
Cu 2.316948811276065445e+00 7.057333828686784827e-01 0.000000000000000000e+00
Cu 2.312571485957041428e+00 7.985593501744786549e-01 0.000000000000000000e+00
Cu 2.306247460654726300e+00 8.922796360822469186e-01 0.000000000000000000e+00
Cu 2.425375126521625457e+00 3.850145443393183931e-02 0.000000000000000000e+00
Cu 2.441942853868873886e+00 1.358440492323136628e-01 0.000000000000000000e+00
Cu 2.446662083754970851e+00 2.324123895766103953e-01 0.000000000000000000e+00
Cu 2.449332972580208878e+00 3.280358703600688153e-01 0.000000000000000000e+00
Cu 2.450624177998712572e+00 4.231869139299005433e-01 0.000000000000000000e+00
Cu 2.451012287991348515e+00 5.182321443942244921e-01 0.000000000000000000e+00
Cu 2.450481704849837072e+00 6.134386127028960134e-01 0.000000000000000000e+00
Cu 2.448525751144395191e+00 7.091631329587416710e-01 0.000000000000000000e+00
Cu 2.444441765535821265e+00 8.058521542766297063e-01 0.000000000000000000e+00
Cu 2.428395658661210543e+00 9.033313677257905905e-01 0.000000000000000000e+00
