200

Cu 0.000000000000000000e+00 5.604046006634997440e-02 0.000000000000000000e+00
Cu 0.000000000000000000e+00 1.505059564227624880e-01 0.000000000000000000e+00
Cu 0.000000000000000000e+00 2.433730693976365878e-01 0.000000000000000000e+00
Cu 0.000000000000000000e+00 3.355227843715537506e-01 0.000000000000000000e+00
Cu 0.000000000000000000e+00 4.274208844120104822e-01 0.000000000000000000e+00
Cu 0.000000000000000000e+00 5.193080372931818678e-01 0.000000000000000000e+00
Cu 0.000000000000000000e+00 6.113808545685960327e-01 0.000000000000000000e+00
Cu 0.000000000000000000e+00 7.038558226188349476e-01 0.000000000000000000e+00
Cu 0.000000000000000000e+00 7.971493964150307976e-01 0.000000000000000000e+00
Cu 0.000000000000000000e+00 8.920607627124274019e-01 0.000000000000000000e+00
Cu 1.356755670509657286e-01 6.179231431279748332e-02 0.000000000000000000e+00
Cu 1.342473773720493369e-01 1.524949294148502388e-01 0.000000000000000000e+00
Cu 1.342178609163051373e-01 2.442065068176276499e-01 0.000000000000000000e+00
Cu 1.341571257807998019e-01 3.359223675782261331e-01 0.000000000000000000e+00
Cu 1.340455413840867249e-01 4.275585033903525622e-01 0.000000000000000000e+00
Cu 1.338658461479543815e-01 5.192276161174245175e-01 0.000000000000000000e+00
Cu 1.336332546889802964e-01 6.110482591653287887e-01 0.000000000000000000e+00
Cu 1.333889459982849912e-01 7.031110684823698165e-01 0.000000000000000000e+00
Cu 1.331689346306224320e-01 7.953021235316581894e-01 0.000000000000000000e+00
Cu 1.343715891708507082e-01 8.866046945394031598e-01 0.000000000000000000e+00
Cu 2.706843002764653394e-01 6.448557232671960071e-02 0.000000000000000000e+00
Cu 2.695219729697578837e-01 1.548972730374089946e-01 0.000000000000000000e+00
Cu 2.688977825300976621e-01 2.456381513421163620e-01 0.000000000000000000e+00
Cu 2.686465435164031024e-01 3.367391287944301315e-01 0.000000000000000000e+00
Cu 2.683618897391275571e-01 4.279391191011984175e-01 0.000000000000000000e+00
Cu 2.679930071117932466e-01 5.192112262798207478e-01 0.000000000000000000e+00
Cu 2.675761854997824041e-01 6.105904858911476163e-01 0.000000000000000000e+00
Cu 2.672104442789550172e-01 7.020342648847258671e-01 0.000000000000000000e+00
Cu 2.673055619552228701e-01 7.932793111323170887e-01 0.000000000000000000e+00
Cu 2.680356208399391482e-01 8.843377933780156575e-01 0.000000000000000000e+00
Cu 4.055940387170084427e-01 6.633522263064850488e-02 0.000000000000000000e+00
Cu 4.046678870161753983e-01 1.566953908104585513e-01 0.000000000000000000e+00
Cu 4.039852277855874862e-01 2.471680775136269048e-01 0.000000000000000000e+00
Cu 4.035245112624527009e-01 3.378129988199700118e-01 0.000000000000000000e+00
Cu 4.030824766767824863e-01 4.285520811035913868e-01 0.000000000000000000e+00
Cu 4.025133333172121741e-01 5.193234895908019899e-01 0.000000000000000000e+00
Cu 4.018928530426520429e-01 6.101782540044375924e-01 0.000000000000000000e+00
Cu 4.014165912839381400e-01 7.011012493564410253e-01 0.000000000000000000e+00
Cu 4.012551857402897881e-01 7.920707879618793523e-01 0.000000000000000000e+00
Cu 4.014799006904977707e-01 8.831352290330152233e-01 0.000000000000000000e+00
Cu 5.405005779291320867e-01 6.777483640724964176e-02 0.000000000000000000e+00
Cu 5.397643359984747313e-01 1.581128533173722928e-01 0.000000000000000000e+00
Cu 5.391745026736556312e-01 2.485037735753359012e-01 0.000000000000000000e+00
Cu 5.387047247758465218e-01 3.389571432675947960e-01 0.000000000000000000e+00
Cu 5.382615055735885390e-01 4.294151488039994469e-01 0.000000000000000000e+00
Cu 5.375349435329026537e-01 5.196959057524559444e-01 0.000000000000000000e+00
Cu 5.365751446975053351e-01 6.099723565997405839e-01 0.000000000000000000e+00
Cu 5.357114641552876977e-01 7.005596384888485018e-01 0.000000000000000000e+00
Cu 5.350568651609773907e-01 7.914801373496753722e-01 0.000000000000000000e+00
Cu 5.346837299896406437e-01 8.826584520193705430e-01 0.000000000000000000e+00
Cu 6.754445847913511658e-01 6.892818985205773075e-02 0.000000000000000000e+00
Cu 6.748746059621266724e-01 1.592422567261358168e-01 0.000000000000000000e+00
Cu 6.744126641555974189e-01 2.496054825452567738e-01 0.000000000000000000e+00
Cu 6.740588965942038158e-01 3.400200960205899126e-01 0.000000000000000000e+00
Cu 6.737030530361236558e-01 4.304175296843315568e-01 0.000000000000000000e+00
Cu 6.732958501407579899e-01 5.206506646717538045e-01 0.000000000000000000e+00
Cu 6.717443305856872771e-01 6.101481551474939868e-01 0.000000000000000000e+00
Cu 6.699556355668218055e-01 7.002348755262866042e-01 0.000000000000000000e+00
Cu 6.686321241061206067e-01 7.915084225438207000e-01 0.000000000000000000e+00
Cu 6.675161710038989282e-01 8.830776742077521835e-01 0.000000000000000000e+00
Cu 8.104646971988057613e-01 6.983396725658939930e-02 0.000000000000000000e+00
Cu 8.100414504793573833e-01 1.601065615493462158e-01 0.000000000000000000e+00
Cu 8.097101525240560926e-01 2.504445619949117741e-01 0.000000000000000000e+00
Cu 8.094667602397062067e-01 3.408649567113281043e-01 0.000000000000000000e+00
Cu 8.093409627084432456e-01 4.313658110443969185e-01 0.000000000000000000e+00
Cu 8.090169185203240909e-01 5.218338078847581940e-01 0.000000000000000000e+00
Cu 8.090117767873918897e-01 6.120891940286123933e-01 0.000000000000000000e+00
Cu 8.038981435045922108e-01 6.995039067252596388e-01 0.000000000000000000e+00
Cu 8.009308532919351409e-01 7.918451258127664483e-01 0.000000000000000000e+00
Cu 8.002113071072228800e-01 8.851661210711959660e-01 0.000000000000000000e+00
Cu 9.456066278364294586e-01 7.050955923762865230e-02 0.000000000000000000e+00
Cu 9.453150317399160452e-01 1.607129514623077404e-01 0.000000000000000000e+00
Cu 9.450874596850202813e-01 2.509920158063853046e-01 0.000000000000000000e+00
Cu 9.449620315042581709e-01 3.413829260818847522e-01 0.000000000000000000e+00
Cu 9.448924452870652857e-01 4.319298574221003273e-01 0.000000000000000000e+00
Cu 9.451088810717357402e-01 5.227176189668821804e-01 0.000000000000000000e+00
Cu 9.444386168929755909e-01 6.138156808825053767e-01 0.000000000000000000e+00
Cu 9.472609521201228455e-01 7.057626715699079067e-01 0.000000000000000000e+00
Cu 9.214885658392635293e-01 7.886162325343722967e-01 0.000000000000000000e+00
Cu 9.387548974864596829e-01 8.833291889152957710e-01 0.000000000000000000e+00
Cu 1.080924534262421632e+00 7.097602699147327610e-02 0.000000000000000000e+00
Cu 1.080746336639361260e+00 1.610773730062968201e-01 0.000000000000000000e+00
Cu 1.080617145826672676e+00 2.512454926611483730e-01 0.000000000000000000e+00
Cu 1.080557750116597715e+00 3.415106520494746722e-01 0.000000000000000000e+00
Cu 1.080658688553955749e+00 4.319177677230418566e-01 0.000000000000000000e+00
Cu 1.080707503886014997e+00 5.225579041815733294e-01 0.000000000000000000e+00
Cu 1.081872180495099478e+00 6.135055233146170517e-01 0.000000000000000000e+00
Cu 1.079708083490414250e+00 7.053409586227863404e-01 0.000000000000000000e+00
Cu 1.106194703871567375e+00 7.878294562006791235e-01 0.000000000000000000e+00
Cu 1.089806132477687095e+00 8.825787371632820566e-01 0.000000000000000000e+00
Cu 1.216468363233309979e+00 7.126615673048763977e-02 0.000000000000000000e+00
Cu 1.216393157563587346e+00 1.612355117383170999e-01 0.000000000000000000e+00
Cu 1.216356164715234778e+00 2.512389466033199681e-01 0.000000000000000000e+00
Cu 1.216416126303625278e+00 3.412731509979172184e-01 0.000000000000000000e+00
Cu 1.216578988973489928e+00 4.313372154838043815e-01 0.000000000000000000e+00
Cu 1.217178902817480202e+00 5.213410747491237229e-01 0.000000000000000000e+00
Cu 1.217667143144108843e+00 6.111439922218611098e-01 0.000000000000000000e+00
Cu 1.223447402892041902e+00 6.981012765384755347e-01 0.000000000000000000e+00
Cu 1.227212187403300403e+00 7.900169980712941076e-01 0.000000000000000000e+00
Cu 1.228856181088153754e+00 8.829515734121550219e-01 0.000000000000000000e+00
Cu 1.352275403750298199e+00 7.142497297392451372e-02 0.000000000000000000e+00
Cu 1.352293849561172934e+00 1.612441000853664930e-01 0.000000000000000000e+00
Cu 1.352376135118087186e+00 2.510448573937013039e-01 0.000000000000000000e+00
Cu 1.352564107270270322e+00 3.407848938522220483e-01 0.000000000000000000e+00
Cu 1.352985195066150004e+00 4.303971175443113695e-01 0.000000000000000000e+00
Cu 1.353676454220685388e+00 5.197902738189978944e-01 0.000000000000000000e+00
Cu 1.355724299539070143e+00 6.084658240832183651e-01 0.000000000000000000e+00
Cu 1.358201856436391131e+00 6.978007019329607319e-01 0.000000000000000000e+00
Cu 1.360391349621654200e+00 7.884070753790480834e-01 0.000000000000000000e+00
Cu 1.362457039464756159e+00 8.793590626856793158e-01 0.000000000000000000e+00
Cu 1.488353633697752976e+00 7.150389354903631534e-02 0.000000000000000000e+00
Cu 1.488468548489181309e+00 1.611734495901175623e-01 0.000000000000000000e+00
Cu 1.488692640163481018e+00 2.507655622246608429e-01 0.000000000000000000e+00
Cu 1.489070883151661917e+00 3.402045145407953664e-01 0.000000000000000000e+00
Cu 1.489654988853863049e+00 4.294410601027149332e-01 0.000000000000000000e+00
Cu 1.490696264028467333e+00 5.184003355211702635e-01 0.000000000000000000e+00
Cu 1.492132664000698661e+00 6.074038811708381003e-01 0.000000000000000000e+00
Cu 1.493676843505781449e+00 6.968809484488293071e-01 0.000000000000000000e+00
Cu 1.495224075520215523e+00 7.868721989588920440e-01 0.000000000000000000e+00
Cu 1.496654296694420294e+00 8.772259051261561691e-01 0.000000000000000000e+00
Cu 1.624675200823353149e+00 7.154580731305291985e-02 0.000000000000000000e+00
Cu 1.624901415572768570e+00 1.610904466232745136e-01 0.000000000000000000e+00
Cu 1.625310579013861778e+00 2.504988611061760850e-01 0.000000000000000000e+00
Cu 1.625882276560768558e+00 3.396903900783053154e-01 0.000000000000000000e+00
Cu 1.626638529877065142e+00 4.286513392823103619e-01 0.000000000000000000e+00
Cu 1.627565943050533370e+00 5.175144108967832945e-01 0.000000000000000000e+00
Cu 1.628577557787103780e+00 6.065279592721676272e-01 0.000000000000000000e+00
Cu 1.629607941762168943e+00 6.958797391916843322e-01 0.000000000000000000e+00
Cu 1.630635699063910815e+00 7.856221495614823525e-01 0.000000000000000000e+00
Cu 1.631602672376848195e+00 8.756736089142822532e-01 0.000000000000000000e+00
Cu 1.761168464373697562e+00 7.156236806918883642e-02 0.000000000000000000e+00
Cu 1.761552273769940058e+00 1.610287800874887487e-01 0.000000000000000000e+00
Cu 1.762203994422233855e+00 2.503024482634979009e-01 0.000000000000000000e+00
Cu 1.763011417830766314e+00 3.393068312832870914e-01 0.000000000000000000e+00
Cu 1.763861076905336001e+00 4.280939381598411475e-01 0.000000000000000000e+00
Cu 1.764647843046063258e+00 5.168306754816757165e-01 0.000000000000000000e+00
Cu 1.765318360965658195e+00 6.057239536611183084e-01 0.000000000000000000e+00
Cu 1.765896768006119499e+00 6.949335686374553678e-01 0.000000000000000000e+00
Cu 1.766453858346530570e+00 7.845166846442147568e-01 0.000000000000000000e+00
Cu 1.767063064453055388e+00 8.743890220722534412e-01 0.000000000000000000e+00
Cu 1.897718186706421672e+00 7.150431451693126106e-02 0.000000000000000000e+00
Cu 1.898357212789559822e+00 1.609580183197843462e-01 0.000000000000000000e+00
Cu 1.899363818249512503e+00 2.501487974287606719e-01 0.000000000000000000e+00
Cu 1.900481412906003920e+00 3.390208582977435881e-01 0.000000000000000000e+00
Cu 1.901464160329572106e+00 4.276689008439532591e-01 0.000000000000000000e+00
Cu 1.902137129156186823e+00 5.162703516807799486e-01 0.000000000000000000e+00
Cu 1.902462357408517102e+00 6.050208326377386481e-01 0.000000000000000000e+00
Cu 1.902547047550806392e+00 6.940869379798051408e-01 0.000000000000000000e+00
Cu 1.902588277511647163e+00 7.835487875105650035e-01 0.000000000000000000e+00
Cu 1.902810459734357584e+00 8.733304769783345467e-01 0.000000000000000000e+00
Cu 2.034156346162390161e+00 7.122929640495255510e-02 0.000000000000000000e+00
Cu 2.035242694702962485e+00 1.607508003596564705e-01 0.000000000000000000e+00
Cu 2.036802878006005457e+00 2.498978561474398674e-01 0.000000000000000000e+00
Cu 2.038373760463849660e+00 3.386776025345336616e-01 0.000000000000000000e+00
Cu 2.039566450988985924e+00 4.272708641902471238e-01 0.000000000000000000e+00
Cu 2.040153608680758790e+00 5.158469014053667090e-01 0.000000000000000000e+00
Cu 2.040103932300098233e+00 6.045249816174669277e-01 0.000000000000000000e+00
Cu 2.039587739177894488e+00 6.934651242262135362e-01 0.000000000000000000e+00
Cu 2.038950374227781026e+00 7.828322884069951471e-01 0.000000000000000000e+00
Cu 2.038624920009977526e+00 8.726132075681880540e-01 0.000000000000000000e+00
Cu 2.170228197959714223e+00 7.045322895252380258e-02 0.000000000000000000e+00
Cu 2.172138583556696645e+00 1.601405452977458232e-01 0.000000000000000000e+00
Cu 2.174596877800994754e+00 2.492458354916833874e-01 0.000000000000000000e+00
Cu 2.176784638508420855e+00 3.380015108648105060e-01 0.000000000000000000e+00
Cu 2.178196470304015531e+00 4.267711745590179184e-01 0.000000000000000000e+00
Cu 2.178723453866966420e+00 5.156310363611434910e-01 0.000000000000000000e+00
Cu 2.178337084671286394e+00 6.044666878457043424e-01 0.000000000000000000e+00
Cu 2.177093498942669125e+00 6.933468318517832518e-01 0.000000000000000000e+00
Cu 2.175459106991155078e+00 7.826215948884149842e-01 0.000000000000000000e+00
Cu 2.174226704967018087e+00 8.725072066580741303e-01 0.000000000000000000e+00
Cu 2.305469040880137488e+00 6.862469216882061129e-02 0.000000000000000000e+00
Cu 2.309040067829635223e+00 1.586012215970560857e-01 0.000000000000000000e+00
Cu 2.312959084420568079e+00 2.476155428886553100e-01 0.000000000000000000e+00
Cu 2.315750862234635221e+00 3.366328211923518277e-01 0.000000000000000000e+00
Cu 2.317222192946196913e+00 4.260789062249022430e-01 0.000000000000000000e+00
Cu 2.317711690923812906e+00 5.156674824221789688e-01 0.000000000000000000e+00
Cu 2.317191364310005053e+00 6.051668242189227609e-01 0.000000000000000000e+00
Cu 2.315270852325370221e+00 6.942840816881004073e-01 0.000000000000000000e+00
Cu 2.312100962031102824e+00 7.834295434525796464e-01 0.000000000000000000e+00
Cu 2.309137818624059424e+00 8.735538038098534797e-01 0.000000000000000000e+00
Cu 2.438753378828292462e+00 6.441868611601951622e-02 0.000000000000000000e+00
Cu 2.446338659145723682e+00 1.548278949591190834e-01 0.000000000000000000e+00
Cu 2.452194568187810120e+00 2.441334620431357960e-01 0.000000000000000000e+00
Cu 2.454933079501610660e+00 3.345458362080402370e-01 0.000000000000000000e+00
Cu 2.456451284026566206e+00 4.251917591786414929e-01 0.000000000000000000e+00
Cu 2.456920351214582077e+00 5.159124625192679225e-01 0.000000000000000000e+00
Cu 2.456315010754158479e+00 6.066138928473446823e-01 0.000000000000000000e+00
Cu 2.454411443853748320e+00 6.971227887553934632e-01 0.000000000000000000e+00
Cu 2.449264260149455197e+00 7.865532504389046720e-01 0.000000000000000000e+00
Cu 2.442229505546966273e+00 8.770786887746084837e-01 0.000000000000000000e+00
Cu 2.566022151140741059e+00 5.123954573448118860e-02 0.000000000000000000e+00
Cu 2.585770276702310522e+00 1.458579129409124375e-01 0.000000000000000000e+00
Cu 2.591050788747196965e+00 2.396286072965362612e-01 0.000000000000000000e+00
Cu 2.594223944727715558e+00 3.322253215171064866e-01 0.000000000000000000e+00
Cu 2.595738897612515750e+00 4.242570746651884162e-01 0.000000000000000000e+00
Cu 2.596198004909895829e+00 5.161696212847918241e-01 0.000000000000000000e+00
Cu 2.595578513846839463e+00 6.082750650209103327e-01 0.000000000000000000e+00
Cu 2.593235450141934351e+00 7.010060396984190145e-01 0.000000000000000000e+00
Cu 2.588670315072282069e+00 7.949327460397639378e-01 0.000000000000000000e+00
Cu 2.569477782001692301e+00 8.897264496047434523e-01 0.000000000000000000e+00
