200

Cu 0.000000000000000000e+00 5.105676497999467149e-03 0.000000000000000000e+00
Cu 0.000000000000000000e+00 1.093219012157196079e-01 0.000000000000000000e+00
Cu 0.000000000000000000e+00 2.134032529009235180e-01 0.000000000000000000e+00
Cu 0.000000000000000000e+00 3.174358536659090402e-01 0.000000000000000000e+00
Cu 0.000000000000000000e+00 4.214611842224221805e-01 0.000000000000000000e+00
Cu 0.000000000000000000e+00 5.254942250039869034e-01 0.000000000000000000e+00
Cu 0.000000000000000000e+00 6.295442529788997099e-01 0.000000000000000000e+00
Cu 0.000000000000000000e+00 7.336236965452720415e-01 0.000000000000000000e+00
Cu 0.000000000000000000e+00 8.377680415880067732e-01 0.000000000000000000e+00
Cu 0.000000000000000000e+00 9.420532539605310784e-01 0.000000000000000000e+00
Cu 1.085306104346851624e-01 5.848757695262902373e-03 0.000000000000000000e+00
Cu 1.082547124453386161e-01 1.095798367387312289e-01 0.000000000000000000e+00
Cu 1.082055003800809351e-01 2.135154209007872061e-01 0.000000000000000000e+00
Cu 1.081736759591859914e-01 3.174916123881930119e-01 0.000000000000000000e+00
Cu 1.081451049888881855e-01 4.214812222491071125e-01 0.000000000000000000e+00
Cu 1.081186751593391226e-01 5.254843252903232953e-01 0.000000000000000000e+00
Cu 1.080954276920091106e-01 6.295010114639928434e-01 0.000000000000000000e+00
Cu 1.080785051941847430e-01 7.335281406602426335e-01 0.000000000000000000e+00
Cu 1.080828734000237462e-01 8.375365675227759432e-01 0.000000000000000000e+00
Cu 1.083053590759456841e-01 9.413699477396404447e-01 0.000000000000000000e+00
Cu 2.169798483223214780e-01 6.242343623567060858e-03 0.000000000000000000e+00
Cu 2.166942054019947717e-01 1.099572431584734805e-01 0.000000000000000000e+00
Cu 2.165165613525695254e-01 2.137460176082285335e-01 0.000000000000000000e+00
Cu 2.164237233774451152e-01 3.176246709459212836e-01 0.000000000000000000e+00
Cu 2.163542326912511193e-01 4.215430912845276601e-01 0.000000000000000000e+00
Cu 2.162984646797859456e-01 5.254831209985260099e-01 0.000000000000000000e+00
Cu 2.162611443898021790e-01 6.294328113340104114e-01 0.000000000000000000e+00
Cu 2.162556553747484178e-01 7.333666529051157124e-01 0.000000000000000000e+00
Cu 2.163377029776107074e-01 8.372341776973089011e-01 0.000000000000000000e+00
Cu 2.165279303137453704e-01 9.410531159121285905e-01 0.000000000000000000e+00
Cu 3.254441466571728614e-01 6.606675576020566536e-03 0.000000000000000000e+00
Cu 3.251566936143039932e-01 1.102943869532842930e-01 0.000000000000000000e+00
Cu 3.249382609147891121e-01 2.140328739935204450e-01 0.000000000000000000e+00
Cu 3.247862362609785780e-01 3.178231418743180381e-01 0.000000000000000000e+00
Cu 3.246732223167428932e-01 4.216494811597931713e-01 0.000000000000000000e+00
Cu 3.245823206957257900e-01 5.254954319745969160e-01 0.000000000000000000e+00
Cu 3.245302633635309131e-01 6.293531170875099612e-01 0.000000000000000000e+00
Cu 3.245396633087576088e-01 7.331978302729240671e-01 0.000000000000000000e+00
Cu 3.246154048358309563e-01 8.370125902655294325e-01 0.000000000000000000e+00
Cu 3.247553418206687303e-01 9.408071225473106924e-01 0.000000000000000000e+00
Cu 4.339722726109828677e-01 6.977503300946193664e-03 0.000000000000000000e+00
Cu 4.336736419429201850e-01 1.106274351886696039e-01 0.000000000000000000e+00
Cu 4.334394411087582055e-01 2.143243327070026849e-01 0.000000000000000000e+00
Cu 4.332664793048852658e-01 3.180583976508703503e-01 0.000000000000000000e+00
Cu 4.331368235111371368e-01 4.218074622919005257e-01 0.000000000000000000e+00
Cu 4.330131332322297300e-01 5.255391009672014668e-01 0.000000000000000000e+00
Cu 4.329161826685403724e-01 6.292813907940665308e-01 0.000000000000000000e+00
Cu 4.328998911086709978e-01 7.330594841402922057e-01 0.000000000000000000e+00
Cu 4.329465232062759683e-01 8.368469732346526246e-01 0.000000000000000000e+00
Cu 4.330260610247098629e-01 9.406152776880225552e-01 0.000000000000000000e+00
Cu 5.425977825400065679e-01 7.371454074803144088e-03 0.000000000000000000e+00
Cu 5.422802500399682701e-01 1.109670057037194651e-01 0.000000000000000000e+00
Cu 5.420328827243162673e-01 2.146140274673420389e-01 0.000000000000000000e+00
Cu 5.418561216413821935e-01 3.183001881585948989e-01 0.000000000000000000e+00
Cu 5.417389657937645708e-01 4.220016373867149229e-01 0.000000000000000000e+00
Cu 5.416482866589330536e-01 5.256723741585551668e-01 0.000000000000000000e+00
Cu 5.414660082503591765e-01 6.292379707929945942e-01 0.000000000000000000e+00
Cu 5.413184368317437434e-01 7.329158084232351156e-01 0.000000000000000000e+00
Cu 5.413313527814161974e-01 8.367355187722413934e-01 0.000000000000000000e+00
Cu 5.413706831786910811e-01 9.405255853915199804e-01 0.000000000000000000e+00
Cu 6.513546412134157970e-01 7.796612963013096857e-03 0.000000000000000000e+00
Cu 6.510103363463131121e-01 1.113199739137616107e-01 0.000000000000000000e+00
Cu 6.507437733272515290e-01 2.149003812491546428e-01 0.000000000000000000e+00
Cu 6.505601104794721534e-01 3.185280841420972120e-01 0.000000000000000000e+00
Cu 6.504606356643578557e-01 4.221888006451814390e-01 0.000000000000000000e+00
Cu 6.504230239465608188e-01 5.258533033611197949e-01 0.000000000000000000e+00
Cu 6.503999601061356550e-01 6.294459824094807976e-01 0.000000000000000000e+00
Cu 6.498556345901838061e-01 7.326542871338344032e-01 0.000000000000000000e+00
Cu 6.495259799649171217e-01 8.366257562149016502e-01 0.000000000000000000e+00
Cu 6.499417318444370428e-01 9.405700419546878521e-01 0.000000000000000000e+00
Cu 7.602776160990353249e-01 8.261759567569285437e-03 0.000000000000000000e+00
Cu 7.598985926500662069e-01 1.116943664720933538e-01 0.000000000000000000e+00
Cu 7.596046790693572470e-01 2.151874325469982918e-01 0.000000000000000000e+00
Cu 7.594043854952126082e-01 3.187329955925852776e-01 0.000000000000000000e+00
Cu 7.593032577950016293e-01 4.223252262467551699e-01 0.000000000000000000e+00
Cu 7.593072735401107387e-01 5.259630232990325505e-01 0.000000000000000000e+00
Cu 7.593627187287333991e-01 6.296483616444583653e-01 0.000000000000000000e+00
Cu 7.595673532888378432e-01 7.333664306631005880e-01 0.000000000000000000e+00
Cu 7.566340995229698940e-01 8.359079222053348301e-01 0.000000000000000000e+00
Cu 7.593262923097796602e-01 9.399260135238897140e-01 0.000000000000000000e+00
Cu 8.694008590031572226e-01 8.777151748693153011e-03 0.000000000000000000e+00
Cu 8.689803729796775622e-01 1.121007264542513704e-01 0.000000000000000000e+00
Cu 8.686538653415087907e-01 2.154839299242830020e-01 0.000000000000000000e+00
Cu 8.684307210584268910e-01 3.189167397184271557e-01 0.000000000000000000e+00
Cu 8.683208050186246307e-01 4.223932639928394406e-01 0.000000000000000000e+00
Cu 8.683265089909546486e-01 5.259134539623663285e-01 0.000000000000000000e+00
Cu 8.685002235932108849e-01 6.294806743794536530e-01 0.000000000000000000e+00
Cu 8.687314201263164337e-01 7.330764119799579870e-01 0.000000000000000000e+00
Cu 8.722979290888781545e-01 8.354569557704377702e-01 0.000000000000000000e+00
Cu 8.703405311187653037e-01 9.393590112508277690e-01 0.000000000000000000e+00
Cu 9.787556757151452125e-01 9.353460177855082297e-03 0.000000000000000000e+00
Cu 9.782902830342999900e-01 1.125510403840915552e-01 0.000000000000000000e+00
Cu 9.779319346761039533e-01 2.158012122110355424e-01 0.000000000000000000e+00
Cu 9.776910083286294295e-01 3.190874470511932959e-01 0.000000000000000000e+00
Cu 9.775803013039731093e-01 4.223954373417504460e-01 0.000000000000000000e+00
Cu 9.776302527684234134e-01 5.257009074982074148e-01 0.000000000000000000e+00
Cu 9.778856254384035163e-01 6.289341587604414530e-01 0.000000000000000000e+00
Cu 9.788730041008915084e-01 7.317846652280454167e-01 0.000000000000000000e+00
Cu 9.798279413832535756e-01 8.354132703212752142e-01 0.000000000000000000e+00
Cu 9.802023590161753619e-01 9.390211622254928114e-01 0.000000000000000000e+00
Cu 1.088367774284276557e+00 1.000004302370936793e-02 0.000000000000000000e+00
Cu 1.087859770029862228e+00 1.130575030813941589e-01 0.000000000000000000e+00
Cu 1.087478944520941626e+00 2.161525953538089295e-01 0.000000000000000000e+00
Cu 1.087234656097779695e+00 3.192595038628854853e-01 0.000000000000000000e+00
Cu 1.087147161305841658e+00 4.223549405336777807e-01 0.000000000000000000e+00
Cu 1.087253783531995976e+00 5.254063812131205546e-01 0.000000000000000000e+00
Cu 1.087670787968582520e+00 6.283585311340124102e-01 0.000000000000000000e+00
Cu 1.088261239328414565e+00 7.314448246717721869e-01 0.000000000000000000e+00
Cu 1.088885651439645663e+00 8.346983973860430117e-01 0.000000000000000000e+00
Cu 1.089668014967796417e+00 9.379278620741335892e-01 0.000000000000000000e+00
Cu 1.198253669778011066e+00 1.072254589892866067e-02 0.000000000000000000e+00
Cu 1.197714102145237769e+00 1.136308490253479520e-01 0.000000000000000000e+00
Cu 1.197329939354841555e+00 2.165534462888640821e-01 0.000000000000000000e+00
Cu 1.197103429895396420e+00 3.194563386505389069e-01 0.000000000000000000e+00
Cu 1.197047936972737148e+00 4.223200744430998244e-01 0.000000000000000000e+00
Cu 1.197193233547322322e+00 5.251414984038150768e-01 0.000000000000000000e+00
Cu 1.197515814219497932e+00 6.279905467956042875e-01 0.000000000000000000e+00
Cu 1.197964669369799395e+00 7.309230222003916255e-01 0.000000000000000000e+00
Cu 1.198558769851225003e+00 8.339143060141588348e-01 0.000000000000000000e+00
Cu 1.199327012318364805e+00 9.369106882374480527e-01 0.000000000000000000e+00
Cu 1.308416746715303836e+00 1.151878170598459594e-02 0.000000000000000000e+00
Cu 1.307869140445436562e+00 1.142762951119796200e-01 0.000000000000000000e+00
Cu 1.307512682719572661e+00 2.170170935763179321e-01 0.000000000000000000e+00
Cu 1.307328523654409436e+00 3.197035443389228404e-01 0.000000000000000000e+00
Cu 1.307305055499680124e+00 4.223322303535306244e-01 0.000000000000000000e+00
Cu 1.307425408938825084e+00 5.249433856504692741e-01 0.000000000000000000e+00
Cu 1.307670581939054388e+00 6.275943912368173727e-01 0.000000000000000000e+00
Cu 1.308046961887963322e+00 7.303164782984868930e-01 0.000000000000000000e+00
Cu 1.308584618773375174e+00 8.331045304446140776e-01 0.000000000000000000e+00
Cu 1.309304935152387994e+00 9.359301189728629344e-01 0.000000000000000000e+00
Cu 1.418844233463473659e+00 1.237193223613695936e-02 0.000000000000000000e+00
Cu 1.418330092740952786e+00 1.149852096693184667e-01 0.000000000000000000e+00
Cu 1.418048725482752959e+00 2.175428914805643543e-01 0.000000000000000000e+00
Cu 1.417944258317225037e+00 3.200080505035773903e-01 0.000000000000000000e+00
Cu 1.417961017599348450e+00 4.223948159171260208e-01 0.000000000000000000e+00
Cu 1.418056575424201826e+00 5.247586266771062657e-01 0.000000000000000000e+00
Cu 1.418224317163314430e+00 6.271664837239486756e-01 0.000000000000000000e+00
Cu 1.418498754923906757e+00 7.296654952261074634e-01 0.000000000000000000e+00
Cu 1.418934748839815185e+00 8.322667689415286230e-01 0.000000000000000000e+00
Cu 1.419587115256673471e+00 9.349367567585372685e-01 0.000000000000000000e+00
Cu 1.529506110690008303e+00 1.324113235561073625e-02 0.000000000000000000e+00
Cu 1.529093850899567952e+00 1.157230620004608135e-01 0.000000000000000000e+00
Cu 1.528960062301298883e+00 2.180984720392006582e-01 0.000000000000000000e+00
Cu 1.528995385633260984e+00 3.203394529734827634e-01 0.000000000000000000e+00
Cu 1.529090059317383954e+00 4.224783926753859498e-01 0.000000000000000000e+00
Cu 1.529168843475165129e+00 5.245850960270329599e-01 0.000000000000000000e+00
Cu 1.529228889527673108e+00 6.267397245185536425e-01 0.000000000000000000e+00
Cu 1.529339678456546947e+00 7.290090874262584730e-01 0.000000000000000000e+00
Cu 1.529606106384810538e+00 8.314227195247492208e-01 0.000000000000000000e+00
Cu 1.530134838917990070e+00 9.339513437922410954e-01 0.000000000000000000e+00
Cu 1.640354141660668397e+00 1.404945881742861169e-02 0.000000000000000000e+00
Cu 1.640156344492730511e+00 1.164152786032374709e-01 0.000000000000000000e+00
Cu 1.640279025921443701e+00 2.186013842980165101e-01 0.000000000000000000e+00
Cu 1.640533686411156378e+00 3.206184783515510506e-01 0.000000000000000000e+00
Cu 1.640746233374950291e+00 4.225434568447498651e-01 0.000000000000000000e+00
Cu 1.640813460656790346e+00 5.244483063984460847e-01 0.000000000000000000e+00
Cu 1.640733191622198550e+00 6.263849574462756475e-01 0.000000000000000000e+00
Cu 1.640604148229177106e+00 7.284242536381888566e-01 0.000000000000000000e+00
Cu 1.640596208342430140e+00 8.306409950483791826e-01 0.000000000000000000e+00
Cu 1.640894837486374325e+00 9.330434290667257713e-01 0.000000000000000000e+00
Cu 1.751314687208231469e+00 1.466396096405526983e-02 0.000000000000000000e+00
Cu 1.751528389305465172e+00 1.169252327069609104e-01 0.000000000000000000e+00
Cu 1.752065601006375983e+00 2.188966311028377465e-01 0.000000000000000000e+00
Cu 1.752600686893638571e+00 3.207132102686446884e-01 0.000000000000000000e+00
Cu 1.752923331135671114e+00 4.225370292652727011e-01 0.000000000000000000e+00
Cu 1.752982535184359980e+00 5.243924760632641124e-01 0.000000000000000000e+00
Cu 1.752776237056723696e+00 6.262250731645704338e-01 0.000000000000000000e+00
Cu 1.752351488245963429e+00 7.280584388098328974e-01 0.000000000000000000e+00
Cu 1.751915305356122943e+00 8.300530182352964248e-01 0.000000000000000000e+00
Cu 1.751790825527023587e+00 9.323414971297776521e-01 0.000000000000000000e+00
Cu 1.862260971669059906e+00 1.483727116881260362e-02 0.000000000000000000e+00
Cu 1.863278182285255546e+00 1.169956050228238148e-01 0.000000000000000000e+00
Cu 1.864423231131321801e+00 2.187224079600265936e-01 0.000000000000000000e+00
Cu 1.865178182820474762e+00 3.204820161811891555e-01 0.000000000000000000e+00
Cu 1.865523649190358624e+00 4.224274572280012352e-01 0.000000000000000000e+00
Cu 1.865577568046334456e+00 5.244417813524407945e-01 0.000000000000000000e+00
Cu 1.865337981036103265e+00 6.263941075063546027e-01 0.000000000000000000e+00
Cu 1.864683201594907747e+00 7.281666400188078203e-01 0.000000000000000000e+00
Cu 1.863629589873588177e+00 8.299107531397815762e-01 0.000000000000000000e+00
Cu 1.862693557288517709e+00 9.320884931878695712e-01 0.000000000000000000e+00
Cu 1.972944762969000454e+00 1.400370053250196527e-02 0.000000000000000000e+00
Cu 1.975648687776227597e+00 1.160396321138438963e-01 0.000000000000000000e+00
Cu 1.977365149405579725e+00 2.177921707251350703e-01 0.000000000000000000e+00
Cu 1.978095003056597356e+00 3.199412971671549144e-01 0.000000000000000000e+00
Cu 1.978407557198415212e+00 4.222359725460869684e-01 0.000000000000000000e+00
Cu 1.978458208491550074e+00 5.245680600264294169e-01 0.000000000000000000e+00
Cu 1.978245253872349618e+00 6.268690034409787337e-01 0.000000000000000000e+00
Cu 1.977609890956500083e+00 7.290294572581665911e-01 0.000000000000000000e+00
Cu 1.975979625525447370e+00 8.307962854786931084e-01 0.000000000000000000e+00
Cu 1.973352021789605004e+00 9.328463304313051596e-01 0.000000000000000000e+00
Cu 2.082837746917491462e+00 9.720347839445918001e-03 0.000000000000000000e+00
Cu 2.088731262925405563e+00 1.132175966596243588e-01 0.000000000000000000e+00
Cu 2.090426191707540848e+00 2.164135522351939567e-01 0.000000000000000000e+00
Cu 2.091186373041668656e+00 3.193038757391317706e-01 0.000000000000000000e+00
Cu 2.091497102329871183e+00 4.220256464848832212e-01 0.000000000000000000e+00
Cu 2.091545683467954664e+00 5.247017692173489012e-01 0.000000000000000000e+00
Cu 2.091330787959362336e+00 6.274307028962345933e-01 0.000000000000000000e+00
Cu 2.090662526962724588e+00 7.303338941529825545e-01 0.000000000000000000e+00
Cu 2.089053063404517019e+00 8.335453655183733268e-01 0.000000000000000000e+00
Cu 2.083236476331391529e+00 9.370572405356769607e-01 0.000000000000000000e+00
