200

Cu 0.000000000000000000e+00 3.515008209084915375e-02 0.000000000000000000e+00
Cu 0.000000000000000000e+00 1.336260680328036354e-01 0.000000000000000000e+00
Cu 0.000000000000000000e+00 2.311012864749366069e-01 0.000000000000000000e+00
Cu 0.000000000000000000e+00 3.281238443300047991e-01 0.000000000000000000e+00
Cu 0.000000000000000000e+00 4.249942729183504020e-01 0.000000000000000000e+00
Cu 0.000000000000000000e+00 5.218635218560091493e-01 0.000000000000000000e+00
Cu 0.000000000000000000e+00 6.188522227580298685e-01 0.000000000000000000e+00
Cu 0.000000000000000000e+00 7.160959244440896487e-01 0.000000000000000000e+00
Cu 0.000000000000000000e+00 8.138632622360878477e-01 0.000000000000000000e+00
Cu 0.000000000000000000e+00 9.126523868817573160e-01 0.000000000000000000e+00
Cu 1.246796164875754453e-01 3.907001115874229186e-02 0.000000000000000000e+00
Cu 1.235635863118241112e-01 1.349783412932177573e-01 0.000000000000000000e+00
Cu 1.234989672691527846e-01 2.316679831200976480e-01 0.000000000000000000e+00
Cu 1.234444618487118145e-01 3.283983269527148141e-01 0.000000000000000000e+00
Cu 1.233616873829029986e-01 4.250924397730939663e-01 0.000000000000000000e+00
Cu 1.232410471133437713e-01 5.218157536468023272e-01 0.000000000000000000e+00
Cu 1.230910146190292292e-01 6.186365635898315452e-01 0.000000000000000000e+00
Cu 1.229348514108916934e-01 7.156042343915769433e-01 0.000000000000000000e+00
Cu 1.228185657725201912e-01 8.126252384517459459e-01 0.000000000000000000e+00
Cu 1.237472392465907151e-01 9.089666620238737726e-01 0.000000000000000000e+00
Cu 2.488658133059783173e-01 4.092866652168541952e-02 0.000000000000000000e+00
Cu 2.479086613826088359e-01 1.366966707337255171e-01 0.000000000000000000e+00
Cu 2.473770888246168143e-01 2.326943906628514136e-01 0.000000000000000000e+00
Cu 2.471527999124291108e-01 3.289848314183903555e-01 0.000000000000000000e+00
Cu 2.469367416781740321e-01 4.253699186243330432e-01 0.000000000000000000e+00
Cu 2.466867627738408564e-01 5.218171360365435607e-01 0.000000000000000000e+00
Cu 2.464272344024402983e-01 6.183335493797574856e-01 0.000000000000000000e+00
Cu 2.462277015603093755e-01 7.148653618361142659e-01 0.000000000000000000e+00
Cu 2.463765772754411276e-01 8.112127302345567559e-01 0.000000000000000000e+00
Cu 2.469874315427700029e-01 9.074365829041061149e-01 0.000000000000000000e+00
Cu 3.729641508145110640e-01 4.227459444692629326e-02 0.000000000000000000e+00
Cu 3.721745311685122903e-01 1.380150964866104224e-01 0.000000000000000000e+00
Cu 3.715849587636859686e-01 2.338340938858283202e-01 0.000000000000000000e+00
Cu 3.711866222650051506e-01 3.297861066966191745e-01 0.000000000000000000e+00
Cu 3.708396028872738004e-01 4.258246921316145572e-01 0.000000000000000000e+00
Cu 3.704462267805351816e-01 5.219041370794568202e-01 0.000000000000000000e+00
Cu 3.700710246337563514e-01 6.180453512195109855e-01 0.000000000000000000e+00
Cu 3.698407977610238540e-01 7.142064899144983103e-01 0.000000000000000000e+00
Cu 3.698378191412184934e-01 8.103641411103462699e-01 0.000000000000000000e+00
Cu 3.700796963189844080e-01 9.065854006030981127e-01 0.000000000000000000e+00
Cu 4.970773454548107484e-01 4.337326503882735218e-02 0.000000000000000000e+00
Cu 4.964196926186184022e-01 1.390915867114890514e-01 0.000000000000000000e+00
Cu 4.958929517311148061e-01 2.348500098101292122e-01 0.000000000000000000e+00
Cu 4.954848245872213175e-01 3.306577228046567729e-01 0.000000000000000000e+00
Cu 4.951235401364291744e-01 4.264703834469072974e-01 0.000000000000000000e+00
Cu 4.946126487770648450e-01 5.221667817237588549e-01 0.000000000000000000e+00
Cu 4.940083850328046422e-01 6.178828823854025654e-01 0.000000000000000000e+00
Cu 4.935538026621175689e-01 7.138187678121523660e-01 0.000000000000000000e+00
Cu 4.932476249706756466e-01 8.099487208509297265e-01 0.000000000000000000e+00
Cu 4.930607346640172306e-01 9.062212830699509780e-01 0.000000000000000000e+00
Cu 6.212526243219171906e-01 4.430441933953532113e-02 0.000000000000000000e+00
Cu 6.207066568500172465e-01 1.399848939648221935e-01 0.000000000000000000e+00
Cu 6.202692129659057585e-01 2.357070046964541143e-01 0.000000000000000000e+00
Cu 6.199411177813894946e-01 3.314700801756028103e-01 0.000000000000000000e+00
Cu 6.196625800392863148e-01 4.272241113064370599e-01 0.000000000000000000e+00
Cu 6.193468369868103673e-01 5.228420676648442011e-01 0.000000000000000000e+00
Cu 6.183433096374562066e-01 6.179655931877635622e-01 0.000000000000000000e+00
Cu 6.172370808861737945e-01 7.135600684292133788e-01 0.000000000000000000e+00
Cu 6.165638215980496772e-01 8.099670369767789646e-01 0.000000000000000000e+00
Cu 6.158945822728634223e-01 9.065082093921490447e-01 0.000000000000000000e+00
Cu 7.455359776848059505e-01 4.509440468742859087e-02 0.000000000000000000e+00
Cu 7.450845703523081287e-01 1.407128371141436185e-01 0.000000000000000000e+00
Cu 7.447309841111224848e-01 2.363857514023206263e-01 0.000000000000000000e+00
Cu 7.444841531805856949e-01 3.321235354350859925e-01 0.000000000000000000e+00
Cu 7.443523347212619434e-01 4.279196826909901219e-01 0.000000000000000000e+00
Cu 7.441841619057812940e-01 5.236972897818295003e-01 0.000000000000000000e+00
Cu 7.440747292792582179e-01 6.192641033942404283e-01 0.000000000000000000e+00
Cu 7.408999990091840182e-01 7.129736290920569708e-01 0.000000000000000000e+00
Cu 7.388408074797712111e-01 8.101890586043853926e-01 0.000000000000000000e+00
Cu 7.389490945319132642e-01 9.078646327639851021e-01 0.000000000000000000e+00
Cu 8.699784461112678446e-01 4.576031734687626557e-02 0.000000000000000000e+00
Cu 8.696054994405588712e-01 1.412871172034351475e-01 0.000000000000000000e+00
Cu 8.693151983768006019e-01 2.368763907731248897e-01 0.000000000000000000e+00
Cu 8.691345466183242330e-01 3.325504819975426130e-01 0.000000000000000000e+00
Cu 8.690599347244879480e-01 4.283384014641790638e-01 0.000000000000000000e+00
Cu 8.691734729207418741e-01 5.242921452509547997e-01 0.000000000000000000e+00
Cu 8.689601622372414846e-01 6.204642352415238316e-01 0.000000000000000000e+00
Cu 8.703181665315647964e-01 7.170809661653848588e-01 0.000000000000000000e+00
Cu 8.541225469726230202e-01 8.079857392143811046e-01 0.000000000000000000e+00
Cu 8.657152827547832663e-01 9.064370855624452883e-01 0.000000000000000000e+00
Cu 9.946341354840242399e-01 4.632266833525038041e-02 0.000000000000000000e+00
Cu 9.943242578132945875e-01 1.417266599323747100e-01 0.000000000000000000e+00
Cu 9.940862288516501000e-01 2.371877461383354035e-01 0.000000000000000000e+00
Cu 9.939453008142659085e-01 3.327234911519422744e-01 0.000000000000000000e+00
Cu 9.939469725500272856e-01 4.283632369098906989e-01 0.000000000000000000e+00
Cu 9.940291525727935618e-01 5.241628738998673764e-01 0.000000000000000000e+00
Cu 9.947018066364128330e-01 6.201801935346386019e-01 0.000000000000000000e+00
Cu 9.940150797301718910e-01 7.166578989413956435e-01 0.000000000000000000e+00
Cu 1.011005194975418631e+00 8.072623965061483942e-01 0.000000000000000000e+00
Cu 1.000391899286990904e+00 9.056848998546015439e-01 0.000000000000000000e+00
Cu 1.119552698245488198e+00 4.680740867647455172e-02 0.000000000000000000e+00
Cu 1.119296173845137243e+00 1.420605301405394871e-01 0.000000000000000000e+00
Cu 1.119109677214814580e+00 2.373478942708679429e-01 0.000000000000000000e+00
Cu 1.119032721665739416e+00 3.326631400517135462e-01 0.000000000000000000e+00
Cu 1.119094434646605185e+00 4.279999035765525428e-01 0.000000000000000000e+00
Cu 1.119465829304804316e+00 5.232981268855347867e-01 0.000000000000000000e+00
Cu 1.120031934629443837e+00 6.183909288090867484e-01 0.000000000000000000e+00
Cu 1.123885317383197080e+00 7.116266568280835703e-01 0.000000000000000000e+00
Cu 1.126802828571425330e+00 8.083857623467798348e-01 0.000000000000000000e+00
Cu 1.127723084775115847e+00 9.056364750947625275e-01 0.000000000000000000e+00
Cu 1.244771333613122311e+00 4.724473054593131272e-02 0.000000000000000000e+00
Cu 1.244564788584098025e+00 1.423276864965199173e-01 0.000000000000000000e+00
Cu 1.244449667339352361e+00 2.374050711831433569e-01 0.000000000000000000e+00
Cu 1.244463517101020988e+00 3.324389570868786503e-01 0.000000000000000000e+00
Cu 1.244690061891462030e+00 4.273789084335068433e-01 0.000000000000000000e+00
Cu 1.245217225960443486e+00 5.221400367455003577e-01 0.000000000000000000e+00
Cu 1.246688232352774817e+00 6.164218328480189912e-01 0.000000000000000000e+00
Cu 1.248498559791025642e+00 7.112277255915198104e-01 0.000000000000000000e+00
Cu 1.250087779896915441e+00 8.069100643167309572e-01 0.000000000000000000e+00
Cu 1.251814187718695681e+00 9.027552238717853061e-01 0.000000000000000000e+00
Cu 1.370303977848676746e+00 4.766547614939465466e-02 0.000000000000000000e+00
Cu 1.370155226270494575e+00 1.425739668657996506e-01 0.000000000000000000e+00
Cu 1.370139908149528019e+00 2.374263035561450241e-01 0.000000000000000000e+00
Cu 1.370289977294556705e+00 3.321586392438614643e-01 0.000000000000000000e+00
Cu 1.370657960811012321e+00 4.267290965628099952e-01 0.000000000000000000e+00
Cu 1.371402881501066817e+00 5.211025147269612301e-01 0.000000000000000000e+00
Cu 1.372461217228715391e+00 6.155374598751524040e-01 0.000000000000000000e+00
Cu 1.373615117612499548e+00 7.103251691126548639e-01 0.000000000000000000e+00
Cu 1.374863095550289183e+00 8.054475798829587863e-01 0.000000000000000000e+00
Cu 1.376193338512821995e+00 9.007843620483677594e-01 0.000000000000000000e+00
Cu 1.496132758644264760e+00 4.809187885459564882e-02 0.000000000000000000e+00
Cu 1.496064808995346551e+00 1.428416493510017982e-01 0.000000000000000000e+00
Cu 1.496192658184224422e+00 2.374797957783708058e-01 0.000000000000000000e+00
Cu 1.496500114842499007e+00 3.319359707103711754e-01 0.000000000000000000e+00
Cu 1.496995851511369491e+00 4.262059311994807476e-01 0.000000000000000000e+00
Cu 1.497656714545060996e+00 5.204073251430025859e-01 0.000000000000000000e+00
Cu 1.498411231479393813e+00 6.147335693557104408e-01 0.000000000000000000e+00
Cu 1.499234474023734220e+00 7.093103368286701738e-01 0.000000000000000000e+00
Cu 1.500153189908217666e+00 8.041609017585699126e-01 0.000000000000000000e+00
Cu 1.501156892123741926e+00 8.992328519891943372e-01 0.000000000000000000e+00
Cu 1.622201568507910086e+00 4.852039873405406684e-02 0.000000000000000000e+00
Cu 1.622265586330456033e+00 1.431473697439110127e-01 0.000000000000000000e+00
Cu 1.622599139540904511e+00 2.376032901077160808e-01 0.000000000000000000e+00
Cu 1.623106240184773341e+00 3.318223688481852229e-01 0.000000000000000000e+00
Cu 1.623686173459251370e+00 4.258520951101762431e-01 0.000000000000000000e+00
Cu 1.624247785769928676e+00 5.198363660886350379e-01 0.000000000000000000e+00
Cu 1.624756911310367702e+00 6.139457067064459928e-01 0.000000000000000000e+00
Cu 1.625257284132288982e+00 7.083059554307845618e-01 0.000000000000000000e+00
Cu 1.625832852675994200e+00 8.029623564000788472e-01 0.000000000000000000e+00
Cu 1.626564407385207245e+00 8.978530617727262797e-01 0.000000000000000000e+00
Cu 1.748414809076092702e+00 4.889743227507845763e-02 0.000000000000000000e+00
Cu 1.748709430834112899e+00 1.434537095617664515e-01 0.000000000000000000e+00
Cu 1.749357244840416437e+00 2.377634998405898925e-01 0.000000000000000000e+00
Cu 1.750143119553040583e+00 3.317802320794392412e-01 0.000000000000000000e+00
Cu 1.750854485723341458e+00 4.255875828885845036e-01 0.000000000000000000e+00
Cu 1.751340908843972421e+00 5.193429606778701135e-01 0.000000000000000000e+00
Cu 1.751581355606942392e+00 6.132200468332970056e-01 0.000000000000000000e+00
Cu 1.751688226789593905e+00 7.073660940264946406e-01 0.000000000000000000e+00
Cu 1.751846959356019306e+00 8.018538414642539802e-01 0.000000000000000000e+00
Cu 1.752256713460353943e+00 8.966270446514393866e-01 0.000000000000000000e+00
Cu 1.874633157290042096e+00 4.909091887221270212e-02 0.000000000000000000e+00
Cu 1.875341264378322936e+00 1.436387934124786214e-01 0.000000000000000000e+00
Cu 1.876486669511147287e+00 2.378241972735996579e-01 0.000000000000000000e+00
Cu 1.877685139680919546e+00 3.316645051147985579e-01 0.000000000000000000e+00
Cu 1.878599617247691533e+00 4.253235657295700300e-01 0.000000000000000000e+00
Cu 1.879031106235112158e+00 5.189551023444775035e-01 0.000000000000000000e+00
Cu 1.878962402678135524e+00 6.126696214404631080e-01 0.000000000000000000e+00
Cu 1.878560862251011709e+00 7.066150037005121121e-01 0.000000000000000000e+00
Cu 1.878139168246919510e+00 8.009453604338770960e-01 0.000000000000000000e+00
Cu 1.878065096776324383e+00 8.956666767969161391e-01 0.000000000000000000e+00
Cu 2.000650465370894082e+00 4.884833430249216346e-02 0.000000000000000000e+00
Cu 2.002119045614132009e+00 1.434559918305110260e-01 0.000000000000000000e+00
Cu 2.004062998227039039e+00 2.375013040285059995e-01 0.000000000000000000e+00
Cu 2.005807307617491375e+00 3.312227601984856773e-01 0.000000000000000000e+00
Cu 2.006924592798301710e+00 4.249491853965521870e-01 0.000000000000000000e+00
Cu 2.007318205518708876e+00 5.187455269809080338e-01 0.000000000000000000e+00
Cu 2.006971744704554084e+00 6.125144011615802908e-01 0.000000000000000000e+00
Cu 2.005951883339679220e+00 7.063166179041288073e-01 0.000000000000000000e+00
Cu 2.004664491616108712e+00 8.004736087239997522e-01 0.000000000000000000e+00
Cu 2.003770873166860422e+00 8.952149024673005107e-01 0.000000000000000000e+00
Cu 2.126105820794695678e+00 4.768702451219102717e-02 0.000000000000000000e+00
Cu 2.129080506787992988e+00 1.424213371909949510e-01 0.000000000000000000e+00
Cu 2.132270692611145435e+00 2.362762034318616478e-01 0.000000000000000000e+00
Cu 2.134503957386354234e+00 3.301494236334868160e-01 0.000000000000000000e+00
Cu 2.135676154576871433e+00 4.243890134446619000e-01 0.000000000000000000e+00
Cu 2.136046437878181159e+00 5.187581674381621655e-01 0.000000000000000000e+00
Cu 2.135598360005948049e+00 6.130320638553946599e-01 0.000000000000000000e+00
Cu 2.134041787859506822e+00 7.069699611486776059e-01 0.000000000000000000e+00
Cu 2.131456792098096908e+00 8.009115911263129384e-01 0.000000000000000000e+00
Cu 2.129006780302987956e+00 8.957467995766941193e-01 0.000000000000000000e+00
Cu 2.250181701135241852e+00 4.445284255051935862e-02 0.000000000000000000e+00
Cu 2.256626943840705835e+00 1.393605506861452237e-01 0.000000000000000000e+00
Cu 2.261251502557076520e+00 2.334585077015331189e-01 0.000000000000000000e+00
Cu 2.263460747062225220e+00 3.284382095937056212e-01 0.000000000000000000e+00
Cu 2.264630828826748932e+00 4.236585560356867508e-01 0.000000000000000000e+00
Cu 2.264988402313453886e+00 5.189464129587108010e-01 0.000000000000000000e+00
Cu 2.264518400775734186e+00 6.142024307891638113e-01 0.000000000000000000e+00
Cu 2.262963086104880617e+00 7.092454015059077577e-01 0.000000000000000000e+00
Cu 2.258915857560612750e+00 8.034255632586752016e-01 0.000000000000000000e+00
Cu 2.252954748175056032e+00 8.984152824294956430e-01 0.000000000000000000e+00
Cu 2.370387203660874409e+00 3.369339117669934575e-02 0.000000000000000000e+00
Cu 2.385599833199164355e+00 1.320698453887232116e-01 0.000000000000000000e+00
Cu 2.390019325487484636e+00 2.297212872659060712e-01 0.000000000000000000e+00
Cu 2.392463867852794746e+00 3.265196664928216030e-01 0.000000000000000000e+00
Cu 2.393644711893754717e+00 4.228850441497984392e-01 0.000000000000000000e+00
Cu 2.393995272273782948e+00 5.191508585719037949e-01 0.000000000000000000e+00
Cu 2.393502647302580666e+00 6.155638276555572830e-01 0.000000000000000000e+00
Cu 2.391708323689750504e+00 7.124489998669865098e-01 0.000000000000000000e+00
Cu 2.387872922906846718e+00 8.102050794844586346e-01 0.000000000000000000e+00
Cu 2.373149649767772207e+00 9.087000006646709371e-01 0.000000000000000000e+00
