200

Cu 0.000000000000000000e+00 1.774620642455551622e-02 0.000000000000000000e+00
Cu 0.000000000000000000e+00 1.195266133950583787e-01 0.000000000000000000e+00
Cu 0.000000000000000000e+00 2.208025656065981113e-01 0.000000000000000000e+00
Cu 0.000000000000000000e+00 3.218590165563158800e-01 0.000000000000000000e+00
Cu 0.000000000000000000e+00 4.228495525343180517e-01 0.000000000000000000e+00
Cu 0.000000000000000000e+00 5.238464439766719050e-01 0.000000000000000000e+00
Cu 0.000000000000000000e+00 6.249050804062372677e-01 0.000000000000000000e+00
Cu 0.000000000000000000e+00 7.260899935131401861e-01 0.000000000000000000e+00
Cu 0.000000000000000000e+00 8.275377541221012878e-01 0.000000000000000000e+00
Cu 0.000000000000000000e+00 9.295063287200235891e-01 0.000000000000000000e+00
Cu 1.155457832672949631e-01 1.994387574303668059e-02 0.000000000000000000e+00
Cu 1.148358843629343762e-01 1.202819764982507311e-01 0.000000000000000000e+00
Cu 1.147616543120765081e-01 2.211222927323722720e-01 0.000000000000000000e+00
Cu 1.147124602044770625e-01 3.220164602107777330e-01 0.000000000000000000e+00
Cu 1.146544975071747685e-01 4.229082470910638936e-01 0.000000000000000000e+00
Cu 1.145831750156734302e-01 5.238234473373077904e-01 0.000000000000000000e+00
Cu 1.145021327654807686e-01 6.247889647262544477e-01 0.000000000000000000e+00
Cu 1.144222535528029994e-01 7.258216224323300603e-01 0.000000000000000000e+00
Cu 1.143801256252698767e-01 8.268584852304347033e-01 0.000000000000000000e+00
Cu 1.149569666046871275e-01 9.274657825581823500e-01 0.000000000000000000e+00
Cu 2.308094281122130831e-01 2.101424249484242293e-02 0.000000000000000000e+00
Cu 2.301557148394163255e-01 1.213019975083565738e-01 0.000000000000000000e+00
Cu 2.297749024241949600e-01 2.217367256166951073e-01 0.000000000000000000e+00
Cu 2.295990130320000322e-01 3.223704480077504431e-01 0.000000000000000000e+00
Cu 2.294503566043710752e-01 4.230788677368486628e-01 0.000000000000000000e+00
Cu 2.293014044693109377e-01 5.238323020571840072e-01 0.000000000000000000e+00
Cu 2.291654137697610449e-01 6.246217685162801514e-01 0.000000000000000000e+00
Cu 2.290821547563808291e-01 7.254008409184098394e-01 0.000000000000000000e+00
Cu 2.292168478959979716e-01 8.260447189387890576e-01 0.000000000000000000e+00
Cu 2.296308401266380084e-01 9.266089027137947021e-01 0.000000000000000000e+00
Cu 3.460318961724042075e-01 2.186226576941385433e-02 0.000000000000000000e+00
Cu 3.454534545258390876e-01 1.221244359444951105e-01 0.000000000000000000e+00
Cu 3.450160930462741193e-01 2.224522718551601164e-01 0.000000000000000000e+00
Cu 3.447158429983415706e-01 3.228743547734606034e-01 0.000000000000000000e+00
Cu 3.444732588744425228e-01 4.233635964242880578e-01 0.000000000000000000e+00
Cu 3.442349082681713801e-01 5.238893568334257456e-01 0.000000000000000000e+00
Cu 3.440428389053836189e-01 6.244518712930159365e-01 0.000000000000000000e+00
Cu 3.439655236676892880e-01 7.250086389021961342e-01 0.000000000000000000e+00
Cu 3.440320350433969665e-01 8.255370426501538184e-01 0.000000000000000000e+00
Cu 3.442400645506403234e-01 9.260826185989912140e-01 0.000000000000000000e+00
Cu 4.612991292777466890e-01 2.261422827062536944e-02 0.000000000000000000e+00
Cu 4.607743477778153407e-01 1.228436744719165891e-01 0.000000000000000000e+00
Cu 4.603557153263503898e-01 2.231195799006245040e-01 0.000000000000000000e+00
Cu 4.600370485352744399e-01 3.234409131861629150e-01 0.000000000000000000e+00
Cu 4.597731116317853584e-01 4.237733149249623965e-01 0.000000000000000000e+00
Cu 4.594568503486615163e-01 5.240449601772568800e-01 0.000000000000000000e+00
Cu 4.591334772613674953e-01 6.243403558561529954e-01 0.000000000000000000e+00
Cu 4.589478949460089052e-01 7.247587058421830486e-01 0.000000000000000000e+00
Cu 4.588689833134398932e-01 8.252616476768340759e-01 0.000000000000000000e+00
Cu 4.588403782953904830e-01 9.258064561834050687e-01 0.000000000000000000e+00
Cu 5.766573837257014112e-01 2.331359927682510186e-02 0.000000000000000000e+00
Cu 5.761721204796387275e-01 1.234894868339321272e-01 0.000000000000000000e+00
Cu 5.757869204096075499e-01 2.237159969938806725e-01 0.000000000000000000e+00
Cu 5.755031410586334273e-01 3.239851621583973440e-01 0.000000000000000000e+00
Cu 5.752902132166951565e-01 4.242592319538011636e-01 0.000000000000000000e+00
Cu 5.750750259443234702e-01 5.244462006326232606e-01 0.000000000000000000e+00
Cu 5.745166607987088891e-01 6.243516280270381413e-01 0.000000000000000000e+00
Cu 5.739510968675244351e-01 7.245590688964019810e-01 0.000000000000000000e+00
Cu 5.737064260066059296e-01 8.252148690845424461e-01 0.000000000000000000e+00
Cu 5.734534147135984528e-01 9.258934900443920313e-01 0.000000000000000000e+00
Cu 6.921526500100466661e-01 2.397608150406142780e-02 0.000000000000000000e+00
Cu 6.916939594327039531e-01 1.240737470321249397e-01 0.000000000000000000e+00
Cu 6.913348829523914274e-01 2.242311625087555493e-01 0.000000000000000000e+00
Cu 6.910855370814389387e-01 3.244473195475996441e-01 0.000000000000000000e+00
Cu 6.909487600835080290e-01 4.247099804627618713e-01 0.000000000000000000e+00
Cu 6.908556792384934475e-01 5.249670417654458410e-01 0.000000000000000000e+00
Cu 6.907531912581020839e-01 6.250659494228103519e-01 0.000000000000000000e+00
Cu 6.890587788585933460e-01 7.241262632303322455e-01 0.000000000000000000e+00
Cu 6.879143950442936362e-01 8.252548910841418506e-01 0.000000000000000000e+00
Cu 6.883926174594608982e-01 9.265011147298105598e-01 0.000000000000000000e+00
Cu 8.078333487315978445e-01 2.461520855316354228e-02 0.000000000000000000e+00
Cu 8.073884283374337389e-01 1.246077189307889937e-01 0.000000000000000000e+00
Cu 8.070408498302812372e-01 2.246652895243365644e-01 0.000000000000000000e+00
Cu 8.068091131693333473e-01 3.247933346010260514e-01 0.000000000000000000e+00
Cu 8.067007568809516638e-01 4.250019176310795843e-01 0.000000000000000000e+00
Cu 8.067410714663341142e-01 5.253133990743099613e-01 0.000000000000000000e+00
Cu 8.067308968512185707e-01 6.257549840400890018e-01 0.000000000000000000e+00
Cu 8.072823744563510928e-01 7.263731814109730678e-01 0.000000000000000000e+00
Cu 7.986251477183935465e-01 8.238124265940647284e-01 0.000000000000000000e+00
Cu 8.054046690970120270e-01 9.253950826323145140e-01 0.000000000000000000e+00
Cu 9.237479360727601785e-01 2.524708346688973176e-02 0.000000000000000000e+00
Cu 9.233056484304974498e-01 1.251076277570170869e-01 0.000000000000000000e+00
Cu 9.229605010515516961e-01 2.250299093958392505e-01 0.000000000000000000e+00
Cu 9.227321248726386704e-01 3.250160180966942258e-01 0.000000000000000000e+00
Cu 9.226444798560521354e-01 4.250762648963971047e-01 0.000000000000000000e+00
Cu 9.226882403334849547e-01 5.252354106503898112e-01 0.000000000000000000e+00
Cu 9.230584520025532091e-01 6.255244995119281226e-01 0.000000000000000000e+00
Cu 9.231086906756839072e-01 7.259921179445962824e-01 0.000000000000000000e+00
Cu 9.325560740503097135e-01 8.231938227605819502e-01 0.000000000000000000e+00
Cu 9.267387524819348243e-01 9.246864227052070673e-01 0.000000000000000000e+00
Cu 1.039940299304248583e+00 2.588957224435003285e-02 0.000000000000000000e+00
Cu 1.039494535454709379e+00 1.255939399078773444e-01 0.000000000000000000e+00
Cu 1.039153086597554010e+00 2.253448422729060485e-01 0.000000000000000000e+00
Cu 1.038940657501127740e+00 3.251296860389790155e-01 0.000000000000000000e+00
Cu 1.038883549974311427e+00 4.249366875305827795e-01 0.000000000000000000e+00
Cu 1.039066243356201458e+00 5.247247902684507581e-01 0.000000000000000000e+00
Cu 1.039530862552948021e+00 6.243562093993263451e-01 0.000000000000000000e+00
Cu 1.041834990684149309e+00 7.229516967809017647e-01 0.000000000000000000e+00
Cu 1.043798696303229967e+00 8.236294512910892207e-01 0.000000000000000000e+00
Cu 1.044336858236781573e+00 9.244453236367262683e-01 0.000000000000000000e+00
Cu 1.156444370601368288e+00 2.656026633390928121e-02 0.000000000000000000e+00
Cu 1.155996647080061779e+00 1.260901447410378018e-01 0.000000000000000000e+00
Cu 1.155674877906613052e+00 2.256380303609360205e-01 0.000000000000000000e+00
Cu 1.155504313370024683e+00 3.251706043289321890e-01 0.000000000000000000e+00
Cu 1.155535803913097626e+00 4.246506879134317458e-01 0.000000000000000000e+00
Cu 1.155848110412887486e+00 5.240146918606024551e-01 0.000000000000000000e+00
Cu 1.156776545181030791e+00 6.231077895793201149e-01 0.000000000000000000e+00
Cu 1.157967499019713964e+00 7.225402097937889678e-01 0.000000000000000000e+00
Cu 1.159068978363440472e+00 8.224663321134969562e-01 0.000000000000000000e+00
Cu 1.160369063665617873e+00 9.224315960512751156e-01 0.000000000000000000e+00
Cu 1.273277172213713060e+00 2.727364346117628485e-02 0.000000000000000000e+00
Cu 1.272840185569775517e+00 1.266210483067160553e-01 0.000000000000000000e+00
Cu 1.272566152933216399e+00 2.259465250112369650e-01 0.000000000000000000e+00
Cu 1.272472701734498779e+00 3.251995032700373267e-01 0.000000000000000000e+00
Cu 1.272597161065680549e+00 4.243483288155525113e-01 0.000000000000000000e+00
Cu 1.273026391703254934e+00 5.233810245848034004e-01 0.000000000000000000e+00
Cu 1.273710123434390828e+00 6.224678844760123120e-01 0.000000000000000000e+00
Cu 1.274514441454387415e+00 7.217710668852974631e-01 0.000000000000000000e+00
Cu 1.275465847833574085e+00 8.212561351304272783e-01 0.000000000000000000e+00
Cu 1.276597087649138818e+00 9.208315986615718263e-01 0.000000000000000000e+00
Cu 1.390431809018332521e+00 2.803496942542957684e-02 0.000000000000000000e+00
Cu 1.390033839232401425e+00 1.272063921202060410e-01 0.000000000000000000e+00
Cu 1.389849606769892665e+00 2.263080369736244490e-01 0.000000000000000000e+00
Cu 1.389861889423596786e+00 3.252838890414572748e-01 0.000000000000000000e+00
Cu 1.390067317130609936e+00 4.241329389514376103e-01 0.000000000000000000e+00
Cu 1.390441703613527036e+00 5.229405277703415011e-01 0.000000000000000000e+00
Cu 1.390938350675020141e+00 6.218339870670842595e-01 0.000000000000000000e+00
Cu 1.391554388929046038e+00 7.208875175307560834e-01 0.000000000000000000e+00
Cu 1.392330180223348979e+00 8.201054873331939943e-01 0.000000000000000000e+00
Cu 1.393279864948034019e+00 9.194505377448121131e-01 0.000000000000000000e+00
Cu 1.507872304577438261e+00 2.882855659359716272e-02 0.000000000000000000e+00
Cu 1.507566130689050876e+00 1.278458736160067444e-01 0.000000000000000000e+00
Cu 1.507533494351231296e+00 2.267381719238374393e-01 0.000000000000000000e+00
Cu 1.507695283847425349e+00 3.254528459400540252e-01 0.000000000000000000e+00
Cu 1.507968575851272419e+00 4.240243843956347236e-01 0.000000000000000000e+00
Cu 1.508282997595131514e+00 5.225588093370953091e-01 0.000000000000000000e+00
Cu 1.508620008127533385e+00 6.211800968927130295e-01 0.000000000000000000e+00
Cu 1.509026262126276219e+00 7.199771694594834237e-01 0.000000000000000000e+00
Cu 1.509579708131763232e+00 8.189796743087742747e-01 0.000000000000000000e+00
Cu 1.510354732250353660e+00 9.181412687656135274e-01 0.000000000000000000e+00
Cu 1.625532197089384123e+00 2.960050552109124572e-02 0.000000000000000000e+00
Cu 1.625410163219639159e+00 1.284975743371916945e-01 0.000000000000000000e+00
Cu 1.625627902982201611e+00 2.271988786594456022e-01 0.000000000000000000e+00
Cu 1.626016468778699764e+00 3.256672246991899611e-01 0.000000000000000000e+00
Cu 1.626406003490367791e+00 4.239655252583160450e-01 0.000000000000000000e+00
Cu 1.626677808877035059e+00 5.222156990767030660e-01 0.000000000000000000e+00
Cu 1.626822292096753220e+00 6.205538348494370471e-01 0.000000000000000000e+00
Cu 1.626940043546538650e+00 7.190947187839792365e-01 0.000000000000000000e+00
Cu 1.627187259446652323e+00 8.178942448038042379e-01 0.000000000000000000e+00
Cu 1.627725499322493663e+00 9.169109152502485927e-01 0.000000000000000000e+00
Cu 1.743312845787152954e+00 3.023743583956410921e-02 0.000000000000000000e+00
Cu 1.743535260935515030e+00 1.290539535820267314e-01 0.000000000000000000e+00
Cu 1.744160451132166001e+00 2.275700657904103641e-01 0.000000000000000000e+00
Cu 1.744890862797815689e+00 3.258050706965610610e-01 0.000000000000000000e+00
Cu 1.745456826119212712e+00 4.238889289601431853e-01 0.000000000000000000e+00
Cu 1.745698524897274284e+00 5.219436542602782225e-01 0.000000000000000000e+00
Cu 1.745608282762516783e+00 6.200580458269834283e-01 0.000000000000000000e+00
Cu 1.745331262441116138e+00 7.183509391769712371e-01 0.000000000000000000e+00
Cu 1.745125075702303796e+00 8.169468178967973504e-01 0.000000000000000000e+00
Cu 1.745279110725169502e+00 9.158587641317589290e-01 0.000000000000000000e+00
Cu 1.861069482185994328e+00 3.053405181202852384e-02 0.000000000000000000e+00
Cu 1.861928138008077438e+00 1.293083614399246073e-01 0.000000000000000000e+00
Cu 1.863203018777829234e+00 2.276146092496856010e-01 0.000000000000000000e+00
Cu 1.864375007670134865e+00 3.256603000592031005e-01 0.000000000000000000e+00
Cu 1.865110705891939169e+00 4.237084118728978721e-01 0.000000000000000000e+00
Cu 1.865331755150574367e+00 5.218071268262217677e-01 0.000000000000000000e+00
Cu 1.865030676664838793e+00 6.198783612428998557e-01 0.000000000000000000e+00
Cu 1.864272085636292653e+00 7.179682112126299920e-01 0.000000000000000000e+00
Cu 1.863379266853890881e+00 8.163356565252141150e-01 0.000000000000000000e+00
Cu 1.862864693096455859e+00 9.151829034345491110e-01 0.000000000000000000e+00
Cu 1.978555537575479306e+00 3.010481066648050541e-02 0.000000000000000000e+00
Cu 1.980653733472089284e+00 1.288636250136055428e-01 0.000000000000000000e+00
Cu 1.982904010707593923e+00 2.269181155598917754e-01 0.000000000000000000e+00
Cu 1.984443895713656092e+00 3.250000905291254294e-01 0.000000000000000000e+00
Cu 1.985222100873394346e+00 4.233689919027139870e-01 0.000000000000000000e+00
Cu 1.985430205905997836e+00 5.218427575959183606e-01 0.000000000000000000e+00
Cu 1.985060721178544041e+00 6.202301967359823420e-01 0.000000000000000000e+00
Cu 1.983907839430112841e+00 7.183471292514923556e-01 0.000000000000000000e+00
Cu 1.982011985648592711e+00 8.164488087185653997e-01 0.000000000000000000e+00
Cu 1.980231745131313392e+00 9.152622038565199070e-01 0.000000000000000000e+00
Cu 2.095253675417654282e+00 2.804735947791915304e-02 0.000000000000000000e+00
Cu 2.100060786378869171e+00 1.267867212496913698e-01 0.000000000000000000e+00
Cu 2.103313623411793287e+00 2.249864811172795354e-01 0.000000000000000000e+00
Cu 2.104832312081689860e+00 3.238359667199471881e-01 0.000000000000000000e+00
Cu 2.105583137967619756e+00 4.228948352103141795e-01 0.000000000000000000e+00
Cu 2.105783841202225393e+00 5.220087976468839042e-01 0.000000000000000000e+00
Cu 2.105427627768125198e+00 6.210861573931505397e-01 0.000000000000000000e+00
Cu 2.104282851396659382e+00 7.199688823080626632e-01 0.000000000000000000e+00
Cu 2.101369456015565795e+00 8.182116383393583936e-01 0.000000000000000000e+00
Cu 2.096860680014073886e+00 9.169949646709677493e-01 0.000000000000000000e+00
Cu 2.209823452868401983e+00 2.029338851360930340e-02 0.000000000000000000e+00
Cu 2.220489376632803769e+00 1.215754081967716227e-01 0.000000000000000000e+00
Cu 2.223683037216888980e+00 2.223280424160406776e-01 0.000000000000000000e+00
Cu 2.225311858176911350e+00 3.225091092592509701e-01 0.000000000000000000e+00
Cu 2.226069177730462645e+00 4.223864344146913696e-01 0.000000000000000000e+00
Cu 2.226265369234382785e+00 5.221874606477633352e-01 0.000000000000000000e+00
Cu 2.225894863538342872e+00 6.220884486014310877e-01 0.000000000000000000e+00
Cu 2.224636312250032777e+00 7.223125754957703260e-01 0.000000000000000000e+00
Cu 2.221784507464340308e+00 8.231179809808484293e-01 0.000000000000000000e+00
Cu 2.211420164358404605e+00 9.244576662289638591e-01 0.000000000000000000e+00
