200

Cu 0.000000000000000000e+00 4.491683284130995645e-04 0.000000000000000000e+00
Cu 0.000000000000000000e+00 1.056071264812676741e-01 0.000000000000000000e+00
Cu 0.000000000000000000e+00 2.107601647307980886e-01 0.000000000000000000e+00
Cu 0.000000000000000000e+00 3.159153743989587815e-01 0.000000000000000000e+00
Cu 0.000000000000000000e+00 4.210745626354920890e-01 0.000000000000000000e+00
Cu 0.000000000000000000e+00 5.262365205060263174e-01 0.000000000000000000e+00
Cu 0.000000000000000000e+00 6.313993374550979087e-01 0.000000000000000000e+00
Cu 0.000000000000000000e+00 7.365613640023586095e-01 0.000000000000000000e+00
Cu 0.000000000000000000e+00 8.417233905624968981e-01 0.000000000000000000e+00
Cu 0.000000000000000000e+00 9.468907743986745285e-01 0.000000000000000000e+00
Cu 1.056364956894817186e-01 5.426576354077318476e-04 0.000000000000000000e+00
Cu 1.055944258320368617e-01 1.056418293336149339e-01 0.000000000000000000e+00
Cu 1.055816625302090778e-01 2.107762685381592838e-01 0.000000000000000000e+00
Cu 1.055731547356616451e-01 3.159232210456004997e-01 0.000000000000000000e+00
Cu 1.055670528537454855e-01 4.210765785446082266e-01 0.000000000000000000e+00
Cu 1.055633033755983413e-01 5.262334620520764394e-01 0.000000000000000000e+00
Cu 1.055621146979043301e-01 6.313908988796097521e-01 0.000000000000000000e+00
Cu 1.055639817772313638e-01 7.365454375589146618e-01 0.000000000000000000e+00
Cu 1.055710472095875152e-01 8.416904529890598674e-01 0.000000000000000000e+00
Cu 1.056069427909074321e-01 9.468038032148250460e-01 0.000000000000000000e+00
Cu 2.112722473805080659e-01 6.070262979767422238e-04 0.000000000000000000e+00
Cu 2.112188695100404856e-01 1.056993889484071220e-01 0.000000000000000000e+00
Cu 2.111836759536418473e-01 2.108120264142523681e-01 0.000000000000000000e+00
Cu 2.111629410498583881e-01 3.159432864016272768e-01 0.000000000000000000e+00
Cu 2.111490216168068479e-01 4.210841233037450615e-01 0.000000000000000000e+00
Cu 2.111409166285181938e-01 5.262295799791675277e-01 0.000000000000000000e+00
Cu 2.111394929926474484e-01 6.313752882458706361e-01 0.000000000000000000e+00
Cu 2.111465773537706814e-01 7.365149719809905848e-01 0.000000000000000000e+00
Cu 2.111692361680640451e-01 8.416393287258782108e-01 0.000000000000000000e+00
Cu 2.112111233190776260e-01 9.467468489671234666e-01 0.000000000000000000e+00
Cu 3.169276697446682389e-01 6.832055952571636443e-04 0.000000000000000000e+00
Cu 3.168623649665449071e-01 1.057626422616708695e-01 0.000000000000000000e+00
Cu 3.168141936691841742e-01 2.108615167482199848e-01 0.000000000000000000e+00
Cu 3.167811357067320532e-01 3.159753504747739306e-01 0.000000000000000000e+00
Cu 3.167587742006424678e-01 4.210983183145869946e-01 0.000000000000000000e+00
Cu 3.167450980693847229e-01 5.262256270507592593e-01 0.000000000000000000e+00
Cu 3.167430528504192044e-01 6.313537061756644420e-01 0.000000000000000000e+00
Cu 3.167559023443050070e-01 7.364761906856396312e-01 0.000000000000000000e+00
Cu 3.167844885122103604e-01 8.415869809830610615e-01 0.000000000000000000e+00
Cu 3.168303509304121746e-01 9.466832962572504506e-01 0.000000000000000000e+00
Cu 4.226177736205337099e-01 7.769301967983699214e-04 0.000000000000000000e+00
Cu 4.225373871337200771e-01 1.058378776075654948e-01 0.000000000000000000e+00
Cu 4.224775475907709410e-01 2.109200724101253643e-01 0.000000000000000000e+00
Cu 4.224359676594791058e-01 3.160172668512999938e-01 0.000000000000000000e+00
Cu 4.224087128270697100e-01 4.211216328589653668e-01 0.000000000000000000e+00
Cu 4.223894424872055575e-01 5.262244815846096602e-01 0.000000000000000000e+00
Cu 4.223819991453698908e-01 6.313279591019260728e-01 0.000000000000000000e+00
Cu 4.223956927215100077e-01 7.364326690167890543e-01 0.000000000000000000e+00
Cu 4.224283361382207280e-01 8.415303362418253830e-01 0.000000000000000000e+00
Cu 4.224767176272707925e-01 9.466116973806752988e-01 0.000000000000000000e+00
Cu 5.283562510656596434e-01 8.925929217999967885e-04 0.000000000000000000e+00
Cu 5.282572813829274905e-01 1.059283280344219258e-01 0.000000000000000000e+00
Cu 5.281838149014170813e-01 2.109885086293684930e-01 0.000000000000000000e+00
Cu 5.281342174424600300e-01 3.160662583061606412e-01 0.000000000000000000e+00
Cu 5.281056083415414104e-01 4.211529887248910975e-01 0.000000000000000000e+00
Cu 5.280915600824985789e-01 5.262364862218802397e-01 0.000000000000000000e+00
Cu 5.280723226335158893e-01 6.313002650846665231e-01 0.000000000000000000e+00
Cu 5.280701084566096215e-01 7.363781709523615771e-01 0.000000000000000000e+00
Cu 5.281071111870485613e-01 8.414693163234272522e-01 0.000000000000000000e+00
Cu 5.281624312485094785e-01 9.465410443193965628e-01 0.000000000000000000e+00
Cu 6.341576416691281359e-01 1.034267763688717905e-03 0.000000000000000000e+00
Cu 6.340360207583985996e-01 1.060374847449283564e-01 0.000000000000000000e+00
Cu 6.339454569756197699e-01 2.110686224261627275e-01 0.000000000000000000e+00
Cu 6.338852013884833658e-01 3.161207031901829834e-01 0.000000000000000000e+00
Cu 6.338545154296650885e-01 4.211862231800445611e-01 0.000000000000000000e+00
Cu 6.338494058910061346e-01 5.262553313675422118e-01 0.000000000000000000e+00
Cu 6.338601716668426089e-01 6.313096763468809547e-01 0.000000000000000000e+00
Cu 6.337974139993292066e-01 7.362916947137193580e-01 0.000000000000000000e+00
Cu 6.337847687395873342e-01 8.413962824632222892e-01 0.000000000000000000e+00
Cu 6.339224172254920298e-01 9.464757866456726676e-01 0.000000000000000000e+00
Cu 7.400373792530459127e-01 1.206973642842621005e-03 0.000000000000000000e+00
Cu 7.398886054591716777e-01 1.061698204022505088e-01 0.000000000000000000e+00
Cu 7.397770572685470336e-01 2.111637014033524717e-01 0.000000000000000000e+00
Cu 7.397025639528987950e-01 3.161810935812536805e-01 0.000000000000000000e+00
Cu 7.396652936592688077e-01 4.212152599098362704e-01 0.000000000000000000e+00
Cu 7.396657846802604519e-01 5.262606429789113971e-01 0.000000000000000000e+00
Cu 7.396960995300918551e-01 6.313127179271383893e-01 0.000000000000000000e+00
Cu 7.397648055609281625e-01 7.363631519914689560e-01 0.000000000000000000e+00
Cu 7.393205444005336302e-01 8.411993696798705233e-01 0.000000000000000000e+00
Cu 7.398618419541513891e-01 9.462847124894013806e-01 0.000000000000000000e+00
Cu 8.460114577967098315e-01 1.416723017009910348e-03 0.000000000000000000e+00
Cu 8.458310395017288874e-01 1.063309884944007577e-01 0.000000000000000000e+00
Cu 8.456952373835743275e-01 2.112784309329615029e-01 0.000000000000000000e+00
Cu 8.456039064695904939e-01 3.162500867738333721e-01 0.000000000000000000e+00
Cu 8.455578338277532913e-01 4.212385219488283261e-01 0.000000000000000000e+00
Cu 8.455573591712824966e-01 5.262378787309244244e-01 0.000000000000000000e+00
Cu 8.456104974066245283e-01 6.312432037801488649e-01 0.000000000000000000e+00
Cu 8.457084653276792929e-01 7.362428451444874566e-01 0.000000000000000000e+00
Cu 8.464122782105675258e-01 8.410117011997929604e-01 0.000000000000000000e+00
Cu 8.461530414581810433e-01 9.460321822480701748e-01 0.000000000000000000e+00
Cu 9.520957938450751445e-01 1.670184473719717655e-03 0.000000000000000000e+00
Cu 9.518800625712033892e-01 1.065275629119776940e-01 0.000000000000000000e+00
Cu 9.517183672231903646e-01 2.114184956394650761e-01 0.000000000000000000e+00
Cu 9.516101446340564651e-01 3.163315894721226429e-01 0.000000000000000000e+00
Cu 9.515565387364595118e-01 4.212574290084558637e-01 0.000000000000000000e+00
Cu 9.515623474851172547e-01 5.261858096108792404e-01 0.000000000000000000e+00
Cu 9.516377052606296294e-01 6.310980610694534310e-01 0.000000000000000000e+00
Cu 9.518731706704121054e-01 7.359354801338416907e-01 0.000000000000000000e+00
Cu 9.521347897178945585e-01 8.409003667439496343e-01 0.000000000000000000e+00
Cu 9.523156381543262938e-01 9.458345616257176625e-01 0.000000000000000000e+00
Cu 1.058305267402325445e+00 1.973947041546728932e-03 0.000000000000000000e+00
Cu 1.058052628001708628e+00 1.067665001028775124e-01 0.000000000000000000e+00
Cu 1.057866314864186918e+00 2.115902629762611009e-01 0.000000000000000000e+00
Cu 1.057744149803449218e+00 3.164306621339603720e-01 0.000000000000000000e+00
Cu 1.057687668860718411e+00 4.212765243863100251e-01 0.000000000000000000e+00
Cu 1.057703104240906411e+00 5.261168789540314750e-01 0.000000000000000000e+00
Cu 1.057810291337581976e+00 6.309383016932376131e-01 0.000000000000000000e+00
Cu 1.057984814325015011e+00 7.357785419736487809e-01 0.000000000000000000e+00
Cu 1.058203238287640291e+00 8.406346508212103608e-01 0.000000000000000000e+00
Cu 1.058492858740044618e+00 9.454618973778160518e-01 0.000000000000000000e+00
Cu 1.164652395845328092e+00 2.333200571880702633e-03 0.000000000000000000e+00
Cu 1.164365091473820613e+00 1.070540709130589213e-01 0.000000000000000000e+00
Cu 1.164159839732293422e+00 2.118002376428922418e-01 0.000000000000000000e+00
Cu 1.164030198442266961e+00 3.165538400695118160e-01 0.000000000000000000e+00
Cu 1.163974343231536590e+00 4.213046921717253923e-01 0.000000000000000000e+00
Cu 1.163995273700494382e+00 5.260494571767219130e-01 0.000000000000000000e+00
Cu 1.164088250195566721e+00 6.307993274304616316e-01 0.000000000000000000e+00
Cu 1.164246007869327748e+00 7.355606049633710564e-01 0.000000000000000000e+00
Cu 1.164476715131676166e+00 8.403217011715595763e-01 0.000000000000000000e+00
Cu 1.164793565227385308e+00 9.450606886019203845e-01 0.000000000000000000e+00
Cu 1.271145823318167611e+00 2.749570730886951447e-03 0.000000000000000000e+00
Cu 1.270832185000715375e+00 1.073937637694976910e-01 0.000000000000000000e+00
Cu 1.270620037564048177e+00 2.120531764228271165e-01 0.000000000000000000e+00
Cu 1.270493879601983789e+00 3.167072041013834771e-01 0.000000000000000000e+00
Cu 1.270442608203069534e+00 4.213494415053835596e-01 0.000000000000000000e+00
Cu 1.270458087068003339e+00 5.259876667369259851e-01 0.000000000000000000e+00
Cu 1.270536794519961488e+00 6.306348713082495783e-01 0.000000000000000000e+00
Cu 1.270684891846008302e+00 7.352967212504889494e-01 0.000000000000000000e+00
Cu 1.270917092875895271e+00 8.399660243742697041e-01 0.000000000000000000e+00
Cu 1.271249680291827611e+00 9.446238931183357224e-01 0.000000000000000000e+00
Cu 1.377789029817043431e+00 3.218016967007449568e-03 0.000000000000000000e+00
Cu 1.377466318939994050e+00 1.077827671409897770e-01 0.000000000000000000e+00
Cu 1.377268286979887346e+00 2.123477937418864481e-01 0.000000000000000000e+00
Cu 1.377164382892667627e+00 3.168908277199521950e-01 0.000000000000000000e+00
Cu 1.377126967397048762e+00 4.214102388080428474e-01 0.000000000000000000e+00
Cu 1.377137543852658741e+00 5.259212436339744112e-01 0.000000000000000000e+00
Cu 1.377194978836578931e+00 6.304448484198538205e-01 0.000000000000000000e+00
Cu 1.377316455621229174e+00 7.349945958870957030e-01 0.000000000000000000e+00
Cu 1.377529531257023709e+00 8.395681307742181021e-01 0.000000000000000000e+00
Cu 1.377864571288112794e+00 9.441437703967545669e-01 0.000000000000000000e+00
Cu 1.484579523766844877e+00 3.722911645716621420e-03 0.000000000000000000e+00
Cu 1.484278054762631971e+00 1.082071503771255688e-01 0.000000000000000000e+00
Cu 1.484127611420626547e+00 2.126700501779222041e-01 0.000000000000000000e+00
Cu 1.484075365414095904e+00 3.170918109739844226e-01 0.000000000000000000e+00
Cu 1.484070046782310470e+00 4.214784031894057148e-01 0.000000000000000000e+00
Cu 1.484077477766070574e+00 5.258524978812202377e-01 0.000000000000000000e+00
Cu 1.484097245050604252e+00 6.302420110468414105e-01 0.000000000000000000e+00
Cu 1.484162634971995631e+00 7.346690413953584908e-01 0.000000000000000000e+00
Cu 1.484324076729577335e+00 8.391389934125951244e-01 0.000000000000000000e+00
Cu 1.484633871617139445e+00 9.436317781819766326e-01 0.000000000000000000e+00
Cu 1.591507851060889100e+00 4.232853976971234777e-03 0.000000000000000000e+00
Cu 1.591278930182983942e+00 1.086357114393861484e-01 0.000000000000000000e+00
Cu 1.591226515950741272e+00 2.129846629242710121e-01 0.000000000000000000e+00
Cu 1.591262930078827686e+00 3.172770190308982219e-01 0.000000000000000000e+00
Cu 1.591307575281649900e+00 4.215387727187855926e-01 0.000000000000000000e+00
Cu 1.591312939754064182e+00 5.257938791252619870e-01 0.000000000000000000e+00
Cu 1.591278737722789494e+00 6.300577015027929439e-01 0.000000000000000000e+00
Cu 1.591251835180875540e+00 7.343539885104813925e-01 0.000000000000000000e+00
Cu 1.591312127189574266e+00 8.387083383164715134e-01 0.000000000000000000e+00
Cu 1.591546723447655021e+00 9.431175744405195793e-01 0.000000000000000000e+00
Cu 1.698554206061456240e+00 4.691166957908205100e-03 0.000000000000000000e+00
Cu 1.698489095560851814e+00 1.090089980693970950e-01 0.000000000000000000e+00
Cu 1.698607239064858998e+00 2.132236292519814336e-01 0.000000000000000000e+00
Cu 1.698759472367431078e+00 3.173888628246603338e-01 0.000000000000000000e+00
Cu 1.698849594201334190e+00 4.215689630614452565e-01 0.000000000000000000e+00
Cu 1.698853563103262188e+00 5.257662473354873800e-01 0.000000000000000000e+00
Cu 1.698771128879481118e+00 6.299478420470141504e-01 0.000000000000000000e+00
Cu 1.698625820585234036e+00 7.341159276583065774e-01 0.000000000000000000e+00
Cu 1.698513330506711272e+00 8.383344666250377442e-01 0.000000000000000000e+00
Cu 1.698582355707752845e+00 9.426567955875320148e-01 0.000000000000000000e+00
Cu 1.805677683464632644e+00 4.987176433010853151e-03 0.000000000000000000e+00
Cu 1.805957892798706110e+00 1.092112009385842880e-01 0.000000000000000000e+00
Cu 1.806332207481877283e+00 2.132700723125766640e-01 0.000000000000000000e+00
Cu 1.806570262881826983e+00 3.173652820831420196e-01 0.000000000000000000e+00
Cu 1.806664740123065993e+00 4.215559527333203604e-01 0.000000000000000000e+00
Cu 1.806667796280108318e+00 5.257814725045610871e-01 0.000000000000000000e+00
Cu 1.806579215305387232e+00 6.299732525304339026e-01 0.000000000000000000e+00
Cu 1.806346414866176753e+00 7.340705374821214768e-01 0.000000000000000000e+00
Cu 1.805976321084995284e+00 8.381321629697313647e-01 0.000000000000000000e+00
Cu 1.805698994320050765e+00 9.423591899539948136e-01 0.000000000000000000e+00
Cu 1.912796215269121580e+00 4.864232116331694729e-03 0.000000000000000000e+00
Cu 1.913814325256660176e+00 1.089763679073215696e-01 0.000000000000000000e+00
Cu 1.914417983772022325e+00 2.129981430164171741e-01 0.000000000000000000e+00
Cu 1.914631110897642818e+00 3.172144135060233072e-01 0.000000000000000000e+00
Cu 1.914702172724152884e+00 4.215105740149906466e-01 0.000000000000000000e+00
Cu 1.914704666032781111e+00 5.258277551771186609e-01 0.000000000000000000e+00
Cu 1.914638416538173793e+00 6.301248259629163018e-01 0.000000000000000000e+00
Cu 1.914429582929245033e+00 7.343427446221763022e-01 0.000000000000000000e+00
Cu 1.913829382671827117e+00 8.383665626916438907e-01 0.000000000000000000e+00
Cu 1.912813690118077226e+00 9.424806370442315728e-01 0.000000000000000000e+00
Cu 2.019766518882839978e+00 3.240175599629456851e-03 0.000000000000000000e+00
Cu 2.022087113088784527e+00 1.079405906999312686e-01 0.000000000000000000e+00
Cu 2.022667145758455742e+00 2.125368770472646773e-01 0.000000000000000000e+00
Cu 2.022875532677922639e+00 3.170276903729267182e-01 0.000000000000000000e+00
Cu 2.022939869513910249e+00 4.214602423542595511e-01 0.000000000000000000e+00
Cu 2.022942021026979731e+00 5.258768215539701973e-01 0.000000000000000000e+00
Cu 2.022881860331537052e+00 6.303102916304124115e-01 0.000000000000000000e+00
Cu 2.022677277061767587e+00 7.348027414129330026e-01 0.000000000000000000e+00
Cu 2.022100453502512440e+00 8.394009638913840776e-01 0.000000000000000000e+00
Cu 2.019782317479139166e+00 9.441029503502611497e-01 0.000000000000000000e+00
