200

Cu 0.000000000000000000e+00 6.040688954055460635e-02 0.000000000000000000e+00
Cu 0.000000000000000000e+00 1.540271806464201254e-01 0.000000000000000000e+00
Cu 0.000000000000000000e+00 2.459227275934613710e-01 0.000000000000000000e+00
Cu 0.000000000000000000e+00 3.370480964590714112e-01 0.000000000000000000e+00
Cu 0.000000000000000000e+00 4.279019082522052542e-01 0.000000000000000000e+00
Cu 0.000000000000000000e+00 5.187427318166130119e-01 0.000000000000000000e+00
Cu 0.000000000000000000e+00 6.097825679465289639e-01 0.000000000000000000e+00
Cu 0.000000000000000000e+00 7.012541886115083445e-01 0.000000000000000000e+00
Cu 0.000000000000000000e+00 7.936034538873032451e-01 0.000000000000000000e+00
Cu 0.000000000000000000e+00 8.876959246005104998e-01 0.000000000000000000e+00
Cu 1.380221030826113415e-01 6.651406778542036380e-02 0.000000000000000000e+00
Cu 1.365481475720488613e-01 1.561383100899603193e-01 0.000000000000000000e+00
Cu 1.365276272648212053e-01 2.468079622569354648e-01 0.000000000000000000e+00
Cu 1.364649071224759425e-01 3.374720784351620817e-01 0.000000000000000000e+00
Cu 1.363467859312348096e-01 4.280472398129669953e-01 0.000000000000000000e+00
Cu 1.361540403322294424e-01 5.186557893288733512e-01 0.000000000000000000e+00
Cu 1.359033402150025827e-01 6.094267303080451725e-01 0.000000000000000000e+00
Cu 1.356401346256768670e-01 7.004595898819877542e-01 0.000000000000000000e+00
Cu 1.353963179582477194e-01 7.916383273659485242e-01 0.000000000000000000e+00
Cu 1.366383794075943237e-01 8.818948719850202567e-01 0.000000000000000000e+00
Cu 2.753510150487810115e-01 6.936821292284550688e-02 0.000000000000000000e+00
Cu 2.741620157312627537e-01 1.586663641466186103e-01 0.000000000000000000e+00
Cu 2.735267546650396731e-01 2.483145881263955357e-01 0.000000000000000000e+00
Cu 2.732719834691232363e-01 3.383320631544418644e-01 0.000000000000000000e+00
Cu 2.729731098091552899e-01 4.284474427824842557e-01 0.000000000000000000e+00
Cu 2.725781977336773076e-01 5.186358288477459499e-01 0.000000000000000000e+00
Cu 2.721257685991067543e-01 6.089389343977468227e-01 0.000000000000000000e+00
Cu 2.717205208758740609e-01 6.993187134248046721e-01 0.000000000000000000e+00
Cu 2.717950807380255518e-01 7.895019179179688651e-01 0.000000000000000000e+00
Cu 2.725360980795095145e-01 8.794843979516226984e-01 0.000000000000000000e+00
Cu 4.125831151550458098e-01 7.131448839002876849e-02 0.000000000000000000e+00
Cu 4.116392222958577540e-01 1.605532406836988613e-01 0.000000000000000000e+00
Cu 4.109451148465882442e-01 2.499143267744667052e-01 0.000000000000000000e+00
Cu 4.104756763823540489e-01 3.394550275223390812e-01 0.000000000000000000e+00
Cu 4.100152345163216583e-01 4.290897620769074661e-01 0.000000000000000000e+00
Cu 4.094084120592572096e-01 5.187536110975412562e-01 0.000000000000000000e+00
Cu 4.087310817390742979e-01 6.085041524046492789e-01 0.000000000000000000e+00
Cu 4.081936234251709594e-01 6.983348184872368858e-01 0.000000000000000000e+00
Cu 4.079883646551283882e-01 7.882247134971891445e-01 0.000000000000000000e+00
Cu 4.082021498662244396e-01 8.782126646465345798e-01 0.000000000000000000e+00
Cu 5.498102445838382035e-01 7.282005654853467014e-02 0.000000000000000000e+00
Cu 5.490639120040556875e-01 1.620349362767040113e-01 0.000000000000000000e+00
Cu 5.484661732238443888e-01 2.513083784392009523e-01 0.000000000000000000e+00
Cu 5.479864846367323850e-01 3.406481428131477585e-01 0.000000000000000000e+00
Cu 5.475282109872048331e-01 4.299931553611324730e-01 0.000000000000000000e+00
Cu 5.467554744433527070e-01 5.191484781648478819e-01 0.000000000000000000e+00
Cu 5.457157747519684188e-01 6.082923888607999485e-01 0.000000000000000000e+00
Cu 5.447517610262150312e-01 6.977627744440464408e-01 0.000000000000000000e+00
Cu 5.440130472553398322e-01 7.875963410624572392e-01 0.000000000000000000e+00
Cu 5.436006373999177077e-01 8.777100114662613750e-01 0.000000000000000000e+00
Cu 6.870712753446436283e-01 7.401776375348517734e-02 0.000000000000000000e+00
Cu 6.864987549147492096e-01 1.632105714998693669e-01 0.000000000000000000e+00
Cu 6.860334770392869652e-01 2.524568896332763379e-01 0.000000000000000000e+00
Cu 6.856758296932888852e-01 3.417586321787581816e-01 0.000000000000000000e+00
Cu 6.853016137576337652e-01 4.310423139521458724e-01 0.000000000000000000e+00
Cu 6.848777582300925593e-01 5.201588311291782674e-01 0.000000000000000000e+00
Cu 6.832024582570158655e-01 6.084894052533190711e-01 0.000000000000000000e+00
Cu 6.812615226135445567e-01 6.974246609619568771e-01 0.000000000000000000e+00
Cu 6.797786596222692435e-01 7.876158442829764850e-01 0.000000000000000000e+00
Cu 6.785804889735859158e-01 8.781392070526982119e-01 0.000000000000000000e+00
Cu 8.244030044213609409e-01 7.494873040878782811e-02 0.000000000000000000e+00
Cu 8.239844162752195666e-01 1.641038171789134803e-01 0.000000000000000000e+00
Cu 8.236571128788005014e-01 2.533293286776114872e-01 0.000000000000000000e+00
Cu 8.234122869718868420e-01 3.426425683747525985e-01 0.000000000000000000e+00
Cu 8.232878041910625111e-01 4.320422874459904916e-01 0.000000000000000000e+00
Cu 8.229197327171857701e-01 5.214060767521454531e-01 0.000000000000000000e+00
Cu 8.229529975251661522e-01 6.105629418067161085e-01 0.000000000000000000e+00
Cu 8.173879673241010169e-01 6.966664138373649395e-01 0.000000000000000000e+00
Cu 8.142533502013964419e-01 7.879575331315544773e-01 0.000000000000000000e+00
Cu 8.133209665548261080e-01 8.803426060767772787e-01 0.000000000000000000e+00
Cu 9.618493778897687640e-01 7.562990340871784956e-02 0.000000000000000000e+00
Cu 9.615705759219649318e-01 1.647203389510671079e-01 0.000000000000000000e+00
Cu 9.613525366029480601e-01 2.538918216513786907e-01 0.000000000000000000e+00
Cu 9.612366904759562791e-01 3.431825682398003674e-01 0.000000000000000000e+00
Cu 9.611618493157996213e-01 4.326390362095792752e-01 0.000000000000000000e+00
Cu 9.614054735308695809e-01 5.223531151685343321e-01 0.000000000000000000e+00
Cu 9.606058552986685983e-01 6.123968466722085058e-01 0.000000000000000000e+00
Cu 9.638038388682510504e-01 7.033839704355929756e-01 0.000000000000000000e+00
Cu 9.359022344797551796e-01 7.844594345231433730e-01 0.000000000000000000e+00
Cu 9.543928569278476992e-01 8.783833472239099827e-01 0.000000000000000000e+00
Cu 1.099464175705532787e+00 7.608189579390636781e-02 0.000000000000000000e+00
Cu 1.099306357161719649e+00 1.650747362512181293e-01 0.000000000000000000e+00
Cu 1.099194965175952721e+00 2.541388130794793865e-01 0.000000000000000000e+00
Cu 1.099147700717420184e+00 3.433062994169612803e-01 0.000000000000000000e+00
Cu 1.099269303584325952e+00 4.326245421585994677e-01 0.000000000000000000e+00
Cu 1.099298574632712855e+00 5.221922701369766662e-01 0.000000000000000000e+00
Cu 1.100592646336240099e+00 6.120861552339786904e-01 0.000000000000000000e+00
Cu 1.098042761446061499e+00 7.029679429556255910e-01 0.000000000000000000e+00
Cu 1.126636640143086954e+00 7.836651739944358042e-01 0.000000000000000000e+00
Cu 1.108995452502287149e+00 8.776373446488171526e-01 0.000000000000000000e+00
Cu 1.237296711570746277e+00 7.633854395758996048e-02 0.000000000000000000e+00
Cu 1.237250012465659355e+00 1.652036293286352209e-01 0.000000000000000000e+00
Cu 1.237237043004180359e+00 2.541049950140263358e-01 0.000000000000000000e+00
Cu 1.237321470353539787e+00 3.430393037953784474e-01 0.000000000000000000e+00
Cu 1.237499299994439861e+00 4.320067558544591901e-01 0.000000000000000000e+00
Cu 1.238151841264065300e+00 5.209094501843901659e-01 0.000000000000000000e+00
Cu 1.238599511981793189e+00 6.096183810755586574e-01 0.000000000000000000e+00
Cu 1.244821974624927385e+00 6.952674160533789394e-01 0.000000000000000000e+00
Cu 1.248733974018688686e+00 7.861400704701685394e-01 0.000000000000000000e+00
Cu 1.250562373942012417e+00 8.781469155415544403e-01 0.000000000000000000e+00
Cu 1.375384070921823909e+00 7.644781512274438640e-02 0.000000000000000000e+00
Cu 1.375437875807856702e+00 1.651672876097134424e-01 0.000000000000000000e+00
Cu 1.375552943871372502e+00 2.538677774616776572e-01 0.000000000000000000e+00
Cu 1.375770331113276956e+00 3.425060566853506683e-01 0.000000000000000000e+00
Cu 1.376228802544127161e+00 4.310110013076537405e-01 0.000000000000000000e+00
Cu 1.376945325226904160e+00 5.192919764749209799e-01 0.000000000000000000e+00
Cu 1.379115746223100958e+00 6.068052405981304576e-01 0.000000000000000000e+00
Cu 1.381734097249736504e+00 6.949963628254421932e-01 0.000000000000000000e+00
Cu 1.384064295857880600e+00 7.845321538587218813e-01 0.000000000000000000e+00
Cu 1.386182920432243337e+00 8.744553950220790295e-01 0.000000000000000000e+00
Cu 1.513732711689594446e+00 7.646530968335592260e-02 0.000000000000000000e+00
Cu 1.513889328834714165e+00 1.650408220259557412e-01 0.000000000000000000e+00
Cu 1.514152908588460855e+00 2.535366860221394680e-01 0.000000000000000000e+00
Cu 1.514571040100095134e+00 3.418749190961407058e-01 0.000000000000000000e+00
Cu 1.515192784883002686e+00 4.300051702986486535e-01 0.000000000000000000e+00
Cu 1.516291006760541071e+00 5.178427621749013277e-01 0.000000000000000000e+00
Cu 1.517804844987557855e+00 6.057180307416456522e-01 0.000000000000000000e+00
Cu 1.519436871252603405e+00 6.940865811932948048e-01 0.000000000000000000e+00
Cu 1.521048652409515922e+00 7.830064254141974045e-01 0.000000000000000000e+00
Cu 1.522491630952129471e+00 8.723187277542872042e-01 0.000000000000000000e+00
Cu 1.652313125828416718e+00 7.643790010289001902e-02 0.000000000000000000e+00
Cu 1.652585764873171659e+00 1.648957037962275052e-01 0.000000000000000000e+00
Cu 1.653041596953616521e+00 2.532146344428462537e-01 0.000000000000000000e+00
Cu 1.653658516262147327e+00 3.413125088332079060e-01 0.000000000000000000e+00
Cu 1.654461363376135585e+00 4.291730420328402906e-01 0.000000000000000000e+00
Cu 1.655439566178879884e+00 5.169297158836058115e-01 0.000000000000000000e+00
Cu 1.656504851674293732e+00 6.048396579936065054e-01 0.000000000000000000e+00
Cu 1.657581008103253151e+00 6.931038501925599338e-01 0.000000000000000000e+00
Cu 1.658632311884429722e+00 7.817815249621059559e-01 0.000000000000000000e+00
Cu 1.659587732390388926e+00 8.707835241985855124e-01 0.000000000000000000e+00
Cu 1.791051220485763373e+00 7.638005932564338740e-02 0.000000000000000000e+00
Cu 1.791485373273102644e+00 1.647684360478168519e-01 0.000000000000000000e+00
Cu 1.792189598029016784e+00 2.529625519415986123e-01 0.000000000000000000e+00
Cu 1.793048342215389557e+00 3.408840732790360817e-01 0.000000000000000000e+00
Cu 1.793945958191164092e+00 4.285848669063607730e-01 0.000000000000000000e+00
Cu 1.794775425694465021e+00 5.162344361267019455e-01 0.000000000000000000e+00
Cu 1.795479260012250222e+00 6.040455141273523010e-01 0.000000000000000000e+00
Cu 1.796075661641855392e+00 6.921842078917280761e-01 0.000000000000000000e+00
Cu 1.796630148847903063e+00 7.807095598381221802e-01 0.000000000000000000e+00
Cu 1.797212793115134932e+00 8.695319980601574628e-01 0.000000000000000000e+00
Cu 1.929829104563712372e+00 7.624336498908533544e-02 0.000000000000000000e+00
Cu 1.930521821470616795e+00 1.646297713226425041e-01 0.000000000000000000e+00
Cu 1.931587362731422619e+00 2.527536632648491599e-01 0.000000000000000000e+00
Cu 1.932761119366844582e+00 3.405574928833356441e-01 0.000000000000000000e+00
Cu 1.933791342814743741e+00 4.281369280037845004e-01 0.000000000000000000e+00
Cu 1.934498876674848766e+00 5.156715353839596006e-01 0.000000000000000000e+00
Cu 1.934841794177955432e+00 6.033595559765220218e-01 0.000000000000000000e+00
Cu 1.934924388833606734e+00 6.913699985072280230e-01 0.000000000000000000e+00
Cu 1.934944076118557899e+00 7.797833270954217522e-01 0.000000000000000000e+00
Cu 1.935128885335273941e+00 8.685191259398078456e-01 0.000000000000000000e+00
Cu 2.068474579854663986e+00 7.588406465422389835e-02 0.000000000000000000e+00
Cu 2.069618804529604006e+00 1.643518429774388501e-01 0.000000000000000000e+00
Cu 2.071246684828930373e+00 2.524480799890798655e-01 0.000000000000000000e+00
Cu 2.072879739435996793e+00 3.401770999960066488e-01 0.000000000000000000e+00
Cu 2.074119844533216739e+00 4.277211424685122831e-01 0.000000000000000000e+00
Cu 2.074734913414796100e+00 5.152507056692402498e-01 0.000000000000000000e+00
Cu 2.074690308097286717e+00 6.028854251397928188e-01 0.000000000000000000e+00
Cu 2.074154998046249698e+00 6.907858652713121383e-01 0.000000000000000000e+00
Cu 2.073478774427046201e+00 7.791169775099564543e-01 0.000000000000000000e+00
Cu 2.073106623869920284e+00 8.678603525503731930e-01 0.000000000000000000e+00
Cu 2.206725069770872238e+00 7.501350575743445659e-02 0.000000000000000000e+00
Cu 2.208701099690122849e+00 1.636660398695911067e-01 0.000000000000000000e+00
Cu 2.211243228802616034e+00 2.517408766082504523e-01 0.000000000000000000e+00
Cu 2.213504715160932168e+00 3.394653137383272790e-01 0.000000000000000000e+00
Cu 2.214965943160825734e+00 4.272061768587726016e-01 0.000000000000000000e+00
Cu 2.215515920625119595e+00 5.150412627307516811e-01 0.000000000000000000e+00
Cu 2.215123383574681082e+00 6.028529644651938746e-01 0.000000000000000000e+00
Cu 2.213841214472138219e+00 6.907107721375638221e-01 0.000000000000000000e+00
Cu 2.212145789441728017e+00 7.789664740354911299e-01 0.000000000000000000e+00
Cu 2.210855206356576286e+00 8.678292039623990428e-01 0.000000000000000000e+00
Cu 2.344097305278494581e+00 7.306989279652284508e-02 0.000000000000000000e+00
Cu 2.347754753854288001e+00 1.620430028779991372e-01 0.000000000000000000e+00
Cu 2.351794859731206611e+00 2.500489786025636429e-01 0.000000000000000000e+00
Cu 2.354683663754252532e+00 3.380543766841975217e-01 0.000000000000000000e+00
Cu 2.356204171605916109e+00 4.264990302067049321e-01 0.000000000000000000e+00
Cu 2.356713459135480360e+00 5.150871640307368438e-01 0.000000000000000000e+00
Cu 2.356180943121595650e+00 6.035889787843200516e-01 0.000000000000000000e+00
Cu 2.354193321587642274e+00 6.917016165745204503e-01 0.000000000000000000e+00
Cu 2.350920942070135133e+00 7.798474923187020957e-01 0.000000000000000000e+00
Cu 2.347876073613053727e+00 8.689767268485834029e-01 0.000000000000000000e+00
Cu 2.479408980650944727e+00 6.870592728928519299e-02 0.000000000000000000e+00
Cu 2.487159771844740686e+00 1.581668932181782838e-01 0.000000000000000000e+00
Cu 2.493248871591415838e+00 2.464661295457789003e-01 0.000000000000000000e+00
Cu 2.496073022708014566e+00 3.359161201780452854e-01 0.000000000000000000e+00
Cu 2.497653494599894497e+00 4.255931829830293389e-01 0.000000000000000000e+00
Cu 2.498140527190980453e+00 5.153459978406150777e-01 0.000000000000000000e+00
Cu 2.497506658173300753e+00 6.050825813323832403e-01 0.000000000000000000e+00
Cu 2.495544223207056600e+00 6.946356059029500374e-01 0.000000000000000000e+00
Cu 2.490180288077602722e+00 7.830681413985781658e-01 0.000000000000000000e+00
Cu 2.482982404730448955e+00 8.726510775329151537e-01 0.000000000000000000e+00
Cu 2.608241795491770709e+00 5.514243601225689989e-02 0.000000000000000000e+00
Cu 2.628886938644318327e+00 1.489236366287142455e-01 0.000000000000000000e+00
Cu 2.634289078997130495e+00 2.418533564733387209e-01 0.000000000000000000e+00
Cu 2.637599652516361193e+00 3.335416118234595384e-01 0.000000000000000000e+00
Cu 2.639169902310937399e+00 4.246394437337653316e-01 0.000000000000000000e+00
Cu 2.639646359405695808e+00 5.156147331908927933e-01 0.000000000000000000e+00
Cu 2.639004006479219733e+00 6.067912868162282924e-01 0.000000000000000000e+00
Cu 2.636549972141710718e+00 6.986230153749811711e-01 0.000000000000000000e+00
Cu 2.631878852804011792e+00 7.917179772837870111e-01 0.000000000000000000e+00
Cu 2.611791496365792220e+00 8.856845037565450607e-01 0.000000000000000000e+00
