200

Cu 0.000000000000000000e+00 1.213261063325197543e-02 0.000000000000000000e+00
Cu 0.000000000000000000e+00 1.172140562071875280e-01 0.000000000000000000e+00
Cu 0.000000000000000000e+00 2.223249344627806212e-01 0.000000000000000000e+00
Cu 0.000000000000000000e+00 3.274830763743165063e-01 0.000000000000000000e+00
Cu 0.000000000000000000e+00 4.326930878490932164e-01 0.000000000000000000e+00
Cu 0.000000000000000000e+00 5.379528151431617333e-01 0.000000000000000000e+00
Cu 0.000000000000000000e+00 6.432587960614779554e-01 0.000000000000000000e+00
Cu 0.000000000000000000e+00 7.486080084701089987e-01 0.000000000000000000e+00
Cu 0.000000000000000000e+00 8.539957449692647806e-01 0.000000000000000000e+00
Cu 0.000000000000000000e+00 9.594110795548070891e-01 0.000000000000000000e+00
Cu 1.059355615362051056e-01 1.233613183321904949e-02 0.000000000000000000e+00
Cu 1.057546106821915383e-01 1.173170256870204736e-01 0.000000000000000000e+00
Cu 1.056205651960551994e-01 2.224038648086106573e-01 0.000000000000000000e+00
Cu 1.054925886474657598e-01 3.275589826890956680e-01 0.000000000000000000e+00
Cu 1.053682184206130995e-01 4.327717077311757365e-01 0.000000000000000000e+00
Cu 1.052462531143301960e-01 5.380360425457928475e-01 0.000000000000000000e+00
Cu 1.051246911719619370e-01 6.433470006246365669e-01 0.000000000000000000e+00
Cu 1.049999723723803596e-01 7.487025784174743404e-01 0.000000000000000000e+00
Cu 1.048656786338163088e-01 8.541104020188791113e-01 0.000000000000000000e+00
Cu 1.046798773086800027e-01 9.596103776179907285e-01 0.000000000000000000e+00
Cu 2.118473074163999548e-01 1.259938113895848859e-02 0.000000000000000000e+00
Cu 2.115340447664515733e-01 1.175866473250711669e-01 0.000000000000000000e+00
Cu 2.112451335642901717e-01 2.226550490341566158e-01 0.000000000000000000e+00
Cu 2.109801497773459156e-01 3.278061143632955421e-01 0.000000000000000000e+00
Cu 2.107278635122881716e-01 4.330240955245658885e-01 0.000000000000000000e+00
Cu 2.104838807727276162e-01 5.382980388809012195e-01 0.000000000000000000e+00
Cu 2.102425606250705459e-01 6.436203850836225149e-01 0.000000000000000000e+00
Cu 2.099936860601869792e-01 7.489892562933879727e-01 0.000000000000000000e+00
Cu 2.097165785559593487e-01 8.544140677124500982e-01 0.000000000000000000e+00
Cu 2.093974582490149561e-01 9.598992437001796496e-01 0.000000000000000000e+00
Cu 3.177368063993720737e-01 1.299082726922747531e-02 0.000000000000000000e+00
Cu 3.172901824881519950e-01 1.179873519787475455e-01 0.000000000000000000e+00
Cu 3.168607486414395380e-01 2.230628042704423941e-01 0.000000000000000000e+00
Cu 3.164547704995855359e-01 3.282168491809634991e-01 0.000000000000000000e+00
Cu 3.160717813587392566e-01 4.334428785103706105e-01 0.000000000000000000e+00
Cu 3.157066719779290653e-01 5.387291131684035506e-01 0.000000000000000000e+00
Cu 3.153511751906918903e-01 6.440652866973934909e-01 0.000000000000000000e+00
Cu 3.149895337106514148e-01 7.494447618531735467e-01 0.000000000000000000e+00
Cu 3.146017510089819669e-01 8.548637470786424331e-01 0.000000000000000000e+00
Cu 3.141688220626118744e-01 9.603258172794066905e-01 0.000000000000000000e+00
Cu 4.236011329326110908e-01 1.351516109430058593e-02 0.000000000000000000e+00
Cu 4.230168570303460829e-01 1.185237107537522594e-01 0.000000000000000000e+00
Cu 4.224482326544148902e-01 2.236121531205070290e-01 0.000000000000000000e+00
Cu 4.219052503792889430e-01 3.287785634623778819e-01 0.000000000000000000e+00
Cu 4.213929487638700677e-01 4.340154997681808791e-01 0.000000000000000000e+00
Cu 4.209109760364010411e-01 5.393123369118009158e-01 0.000000000000000000e+00
Cu 4.204525701977635532e-01 6.446570065426701079e-01 0.000000000000000000e+00
Cu 4.200022784080855165e-01 7.500371502926366230e-01 0.000000000000000000e+00
Cu 4.195343288455983810e-01 8.554421454381893053e-01 0.000000000000000000e+00
Cu 4.190164978730799850e-01 9.608709182924588532e-01 0.000000000000000000e+00
Cu 5.294385287204270707e-01 1.417514495071120484e-02 0.000000000000000000e+00
Cu 5.287104227004035817e-01 1.191951413212346683e-01 0.000000000000000000e+00
Cu 5.279988963972105376e-01 2.242978653261848143e-01 0.000000000000000000e+00
Cu 5.273208483466700347e-01 3.294790979504852446e-01 0.000000000000000000e+00
Cu 5.266861492870568151e-01 4.347269970784723991e-01 0.000000000000000000e+00
Cu 5.260976832147011839e-01 5.400263289680625745e-01 0.000000000000000000e+00
Cu 5.255529028475786069e-01 6.453646457434482064e-01 0.000000000000000000e+00
Cu 5.250387306898705031e-01 7.507304864769899222e-01 0.000000000000000000e+00
Cu 5.245253181881346372e-01 8.561126806240171305e-01 0.000000000000000000e+00
Cu 5.239650565363552781e-01 9.614992398769471871e-01 0.000000000000000000e+00
Cu 6.352513667168376843e-01 1.497631765423282878e-02 0.000000000000000000e+00
Cu 6.343696784064428718e-01 1.200041070380661046e-01 0.000000000000000000e+00
Cu 6.335073718207264726e-01 2.251164704453620935e-01 0.000000000000000000e+00
Cu 6.326944322100926943e-01 3.303090560417873967e-01 0.000000000000000000e+00
Cu 6.319481835579219275e-01 4.355620211684534393e-01 0.000000000000000000e+00
Cu 6.312744909106940971e-01 5.408506779046728941e-01 0.000000000000000000e+00
Cu 6.306656750883180562e-01 6.461545430556662195e-01 0.000000000000000000e+00
Cu 6.301094205089874389e-01 7.514779823646872137e-01 0.000000000000000000e+00
Cu 6.295810981100797843e-01 8.568176641973885843e-01 0.000000000000000000e+00
Cu 6.290355107555324343e-01 9.621568452306732411e-01 0.000000000000000000e+00
Cu 7.410431480525074832e-01 1.593099756607932460e-02 0.000000000000000000e+00
Cu 7.399978209534828766e-01 1.209611214528820283e-01 0.000000000000000000e+00
Cu 7.389734274785351165e-01 2.260705689196202406e-01 0.000000000000000000e+00
Cu 7.380197904443649426e-01 3.312595370383339399e-01 0.000000000000000000e+00
Cu 7.371779059397589595e-01 4.365056986351071311e-01 0.000000000000000000e+00
Cu 7.364530534769228032e-01 5.417590978006711078e-01 0.000000000000000000e+00
Cu 7.358249618067749243e-01 6.469987613726920772e-01 0.000000000000000000e+00
Cu 7.352348636478059918e-01 7.522259824650113780e-01 0.000000000000000000e+00
Cu 7.347108193238562901e-01 8.574918885812746749e-01 0.000000000000000000e+00
Cu 7.342419371878601275e-01 9.627346995975267774e-01 0.000000000000000000e+00
Cu 8.468118868608096594e-01 1.705161627775858210e-02 0.000000000000000000e+00
Cu 8.455982306547149552e-01 1.220867640616642852e-01 0.000000000000000000e+00
Cu 8.444073339755507890e-01 2.271795383994222317e-01 0.000000000000000000e+00
Cu 8.432987383282251059e-01 3.323303919963219166e-01 0.000000000000000000e+00
Cu 8.423678787395859624e-01 4.375319055011204217e-01 0.000000000000000000e+00
Cu 8.416686287300685354e-01 5.427154868299115531e-01 0.000000000000000000e+00
Cu 8.410569867053157012e-01 6.478312403887803717e-01 0.000000000000000000e+00
Cu 8.404502416205398285e-01 7.530158838389017228e-01 0.000000000000000000e+00
Cu 3.852082955408112408e+00 6.796137303499791837e-01 0.000000000000000000e+00
Cu 3.828969494618525982e+00 7.817394776467153639e-01 0.000000000000000000e+00
Cu 9.525513589812881765e-01 1.835515249898042253e-02 0.000000000000000000e+00
Cu 9.511574368301400906e-01 1.233951341495448523e-01 0.000000000000000000e+00
Cu 9.498189314300155006e-01 2.284918754310499012e-01 0.000000000000000000e+00
Cu 9.485623525953252866e-01 3.335648057086942897e-01 0.000000000000000000e+00
Cu 9.475299913773905791e-01 4.386151929703228647e-01 0.000000000000000000e+00
Cu 9.470044206633534412e-01 5.435454916967135119e-01 0.000000000000000000e+00
Cu 9.463686780829386747e-01 6.486545572390201020e-01 0.000000000000000000e+00
Cu 3.984872618898902985e+00 6.032104431685368917e-01 0.000000000000000000e+00
Cu 3.959953257762987899e+00 7.034682000341668795e-01 0.000000000000000000e+00
Cu 3.939391052502838164e+00 8.024821506518351466e-01 0.000000000000000000e+00
Cu 1.058242516525809140e+00 1.985126406788754669e-02 0.000000000000000000e+00
Cu 1.056664688974896738e+00 1.249186973992448269e-01 0.000000000000000000e+00
Cu 1.055144465880810678e+00 2.300049926871639838e-01 0.000000000000000000e+00
Cu 1.053827394667740558e+00 3.351506608229148365e-01 0.000000000000000000e+00
Cu 4.175283070811502739e+00 3.280307760274454587e-01 0.000000000000000000e+00
Cu 4.140134519195664886e+00 4.261420478462606409e-01 0.000000000000000000e+00
Cu 4.120537277431162160e+00 5.280312833764821967e-01 0.000000000000000000e+00
Cu 4.094808324252727338e+00 6.267294061437872488e-01 0.000000000000000000e+00
Cu 4.073915124949365918e+00 7.243880444183903311e-01 0.000000000000000000e+00
Cu 4.056515016137006491e+00 8.210191329603139243e-01 0.000000000000000000e+00
Cu 1.163874890615811175e+00 2.158449976727250252e-02 0.000000000000000000e+00
Cu 1.162062116152172919e+00 1.266603010942188023e-01 0.000000000000000000e+00
Cu 1.160417779634062452e+00 2.318248411876718817e-01 0.000000000000000000e+00
Cu 4.312180611806628150e+00 2.580916663951564050e-01 0.000000000000000000e+00
Cu 4.280887421261241776e+00 3.568771554658424217e-01 0.000000000000000000e+00
Cu 4.258471621230899729e+00 4.544611809942912251e-01 0.000000000000000000e+00
Cu 4.231818667274903412e+00 5.496927602754766440e-01 0.000000000000000000e+00
Cu 4.211560759202299664e+00 6.467698389529459302e-01 0.000000000000000000e+00
Cu 4.193715114270077926e+00 7.420255723783074631e-01 0.000000000000000000e+00
Cu 4.179301860053518780e+00 8.364508975413583736e-01 0.000000000000000000e+00
Cu 1.269395383461564331e+00 2.355110645196149821e-02 0.000000000000000000e+00
Cu 1.267375179164306642e+00 1.287208169476259378e-01 0.000000000000000000e+00
Cu 4.452486127528561433e+00 1.900339023895986634e-01 0.000000000000000000e+00
Cu 4.421197606020304427e+00 2.868355907905014712e-01 0.000000000000000000e+00
Cu 4.395820096492455420e+00 3.820166569209867968e-01 0.000000000000000000e+00
Cu 4.373247405249215625e+00 4.767026236087938962e-01 0.000000000000000000e+00
Cu 4.352360808225395061e+00 5.707388274921899596e-01 0.000000000000000000e+00
Cu 4.333976693863900387e+00 6.635686177078671255e-01 0.000000000000000000e+00
Cu 4.318954133924934879e+00 7.565276294393519230e-01 0.000000000000000000e+00
Cu 4.306905813412966744e+00 8.489113707024058542e-01 0.000000000000000000e+00
Cu 1.374819729192273687e+00 2.592809867057334350e-02 0.000000000000000000e+00
Cu 4.592856481762450649e+00 1.233861192930438833e-01 0.000000000000000000e+00
Cu 4.563311780911211812e+00 2.191764720429792979e-01 0.000000000000000000e+00
Cu 4.538486501320838862e+00 3.126182925815346181e-01 0.000000000000000000e+00
Cu 4.516497363591051695e+00 4.045652564278064411e-01 0.000000000000000000e+00
Cu 4.496547485369626784e+00 4.960070384049469761e-01 0.000000000000000000e+00
Cu 4.478426460523688313e+00 5.870512379999620611e-01 0.000000000000000000e+00
Cu 4.462388546068704720e+00 6.777449466364773301e-01 0.000000000000000000e+00
Cu 4.448960717036348100e+00 7.682910572957262207e-01 0.000000000000000000e+00
Cu 4.438733368095378218e+00 8.588157370090383491e-01 0.000000000000000000e+00
Cu 4.729737416371944114e+00 5.556081687847040651e-02 0.000000000000000000e+00
Cu 4.705135786500004969e+00 1.514352615474187091e-01 0.000000000000000000e+00
Cu 4.682988739818338964e+00 2.437958423806826924e-01 0.000000000000000000e+00
Cu 4.662851249304760692e+00 3.341101091505326304e-01 0.000000000000000000e+00
Cu 4.644138026527554253e+00 4.233529118766090060e-01 0.000000000000000000e+00
Cu 4.626536285980505703e+00 5.120542918437909208e-01 0.000000000000000000e+00
Cu 4.610211294926883419e+00 6.005813080339106325e-01 0.000000000000000000e+00
Cu 4.595591473481142941e+00 6.891305262201654624e-01 0.000000000000000000e+00
Cu 4.583341113147114676e+00 7.778327233694829479e-01 0.000000000000000000e+00
Cu 4.574230070992560293e+00 8.666822295453527891e-01 0.000000000000000000e+00
Cu 4.843046382388499715e+00 7.864180328265114872e-02 0.000000000000000000e+00
Cu 4.826604614751775379e+00 1.725764021665962822e-01 0.000000000000000000e+00
Cu 4.810174722592814867e+00 2.629203261057948549e-01 0.000000000000000000e+00
Cu 4.794060689092997762e+00 3.511742609064633647e-01 0.000000000000000000e+00
Cu 4.778096223096127027e+00 4.383996724218612306e-01 0.000000000000000000e+00
Cu 4.762347202804742885e+00 5.251891723559548586e-01 0.000000000000000000e+00
Cu 4.747183873295201195e+00 6.118279622827130781e-01 0.000000000000000000e+00
Cu 4.733265000284057500e+00 6.985718347497134051e-01 0.000000000000000000e+00
Cu 4.721488867348843321e+00 7.856629903354794831e-01 0.000000000000000000e+00
Cu 4.712915412504576018e+00 8.731311518044795328e-01 0.000000000000000000e+00
Cu 4.966155026714500487e+00 9.685751485073203215e-02 0.000000000000000000e+00
Cu 4.955516691150670283e+00 1.883764606734137648e-01 0.000000000000000000e+00
Cu 4.944120187730749016e+00 2.771385990087557594e-01 0.000000000000000000e+00
Cu 4.931502320090221936e+00 3.640366351022906177e-01 0.000000000000000000e+00
Cu 4.917715862020799023e+00 4.501799368721673411e-01 0.000000000000000000e+00
Cu 4.903320309441268954e+00 5.360233671732173022e-01 0.000000000000000000e+00
Cu 4.888902279686083929e+00 6.215441748875749628e-01 0.000000000000000000e+00
Cu 4.875095603580562376e+00 7.068967170627243890e-01 0.000000000000000000e+00
Cu 4.863011021266961720e+00 7.925834196208942917e-01 0.000000000000000000e+00
Cu 4.854204446927602667e+00 8.789124972796839019e-01 0.000000000000000000e+00
Cu 5.096892884306094551e+00 1.104534471783949201e-01 0.000000000000000000e+00
Cu 5.091518890569428635e+00 1.998278884178481263e-01 0.000000000000000000e+00
Cu 5.084664790447811278e+00 2.869832042583195797e-01 0.000000000000000000e+00
Cu 5.074749468024483789e+00 3.732602855003148701e-01 0.000000000000000000e+00
Cu 5.062320652436713253e+00 4.594324113384558039e-01 0.000000000000000000e+00
Cu 5.048824607523141772e+00 5.453051853251607017e-01 0.000000000000000000e+00
Cu 5.035039970283730959e+00 6.307151965653279291e-01 0.000000000000000000e+00
Cu 5.020992869951323101e+00 7.152514237589189250e-01 0.000000000000000000e+00
Cu 5.007604647919773555e+00 7.996326636737999261e-01 0.000000000000000000e+00
Cu 4.997301805544210218e+00 8.851005419380163497e-01 0.000000000000000000e+00
Cu 5.232890516521234936e+00 1.180234749994771987e-01 0.000000000000000000e+00
Cu 5.234673874456245990e+00 2.059344491868748406e-01 0.000000000000000000e+00
Cu 5.232143228699956516e+00 2.923627959928370434e-01 0.000000000000000000e+00
Cu 5.222981578630723654e+00 3.799023388541853397e-01 0.000000000000000000e+00
Cu 5.211373440319783334e+00 4.671568320441911171e-01 0.000000000000000000e+00
Cu 5.198412165821305386e+00 5.538458019366017115e-01 0.000000000000000000e+00
Cu 5.184869920571550495e+00 6.399003590992548007e-01 0.000000000000000000e+00
Cu 5.171377573684904583e+00 7.253313255149377303e-01 0.000000000000000000e+00
Cu 5.155329154807678727e+00 8.086136301501362089e-01 0.000000000000000000e+00
Cu 5.140492990379802229e+00 8.935451522811611591e-01 0.000000000000000000e+00
Cu 5.367285557652691885e+00 1.104262268092355420e-01 0.000000000000000000e+00
Cu 5.388214858605053337e+00 2.029918682031577049e-01 0.000000000000000000e+00
Cu 5.384136231204966094e+00 2.952959764577092194e-01 0.000000000000000000e+00
Cu 5.375897665837966244e+00 3.857683947425439852e-01 0.000000000000000000e+00
Cu 5.364470768456684802e+00 4.745858039210417156e-01 0.000000000000000000e+00
Cu 5.351745488761988412e+00 5.622682214754778363e-01 0.000000000000000000e+00
Cu 5.338494353071024712e+00 6.492591322977516732e-01 0.000000000000000000e+00
Cu 5.324231915988583808e+00 7.362221371349626509e-01 0.000000000000000000e+00
Cu 5.309817506397495279e+00 8.245167323736840581e-01 0.000000000000000000e+00
Cu 5.276278355188073199e+00 9.119464740222325005e-01 0.000000000000000000e+00
