200

Cu 0.000000000000000000e+00 1.004657886914803872e-02 0.000000000000000000e+00
Cu 0.000000000000000000e+00 1.133006889131026457e-01 0.000000000000000000e+00
Cu 0.000000000000000000e+00 2.162743043044274283e-01 0.000000000000000000e+00
Cu 0.000000000000000000e+00 3.191333710276210711e-01 0.000000000000000000e+00
Cu 0.000000000000000000e+00 4.219636192663131502e-01 0.000000000000000000e+00
Cu 0.000000000000000000e+00 5.248020169669063151e-01 0.000000000000000000e+00
Cu 0.000000000000000000e+00 6.276752508884992920e-01 0.000000000000000000e+00
Cu 0.000000000000000000e+00 7.306157509806241457e-01 0.000000000000000000e+00
Cu 0.000000000000000000e+00 8.336988444985808933e-01 0.000000000000000000e+00
Cu 0.000000000000000000e+00 9.370733890557185752e-01 0.000000000000000000e+00
Cu 1.113500215692494882e-01 1.138987748825520327e-02 0.000000000000000000e+00
Cu 1.108838456965435121e-01 1.137631371091199356e-01 0.000000000000000000e+00
Cu 1.108189438700131618e-01 2.164723096129269331e-01 0.000000000000000000e+00
Cu 1.107771470886565884e-01 3.192316010823010863e-01 0.000000000000000000e+00
Cu 1.107346040643710089e-01 4.220002241994200709e-01 0.000000000000000000e+00
Cu 1.106888416076612508e-01 5.247874257144460319e-01 0.000000000000000000e+00
Cu 1.106418027628946199e-01 6.276028694970546828e-01 0.000000000000000000e+00
Cu 1.105995296504414388e-01 7.304502742963735473e-01 0.000000000000000000e+00
Cu 1.105872825367968521e-01 8.332853776795731138e-01 0.000000000000000000e+00
Cu 1.109623189353890205e-01 9.358345070447181557e-01 0.000000000000000000e+00
Cu 2.225349525275968632e-01 1.206560178219860668e-02 0.000000000000000000e+00
Cu 2.220815497462461929e-01 1.144129909487117125e-01 0.000000000000000000e+00
Cu 2.218085121900689460e-01 2.168665034248915824e-01 0.000000000000000000e+00
Cu 2.216741249054122176e-01 3.194594214242632568e-01 0.000000000000000000e+00
Cu 2.215676990180032446e-01 4.221093976470199904e-01 0.000000000000000000e+00
Cu 2.214716723411012667e-01 5.247920459872059684e-01 0.000000000000000000e+00
Cu 2.213941811399221804e-01 6.274949837518832840e-01 0.000000000000000000e+00
Cu 2.213595351616004236e-01 7.301820451829862391e-01 0.000000000000000000e+00
Cu 2.214689448469074895e-01 8.327706128246343820e-01 0.000000000000000000e+00
Cu 2.217594201279634303e-01 9.352969546200137207e-01 0.000000000000000000e+00
Cu 3.337120579922702168e-01 1.264170117638118568e-02 0.000000000000000000e+00
Cu 3.332859387015305597e-01 1.149612977440295503e-01 0.000000000000000000e+00
Cu 3.329622738262043580e-01 2.173406088786555834e-01 0.000000000000000000e+00
Cu 3.327380092455790028e-01 3.197916318738646679e-01 0.000000000000000000e+00
Cu 3.325642304556398199e-01 4.222940033150630601e-01 0.000000000000000000e+00
Cu 3.324091582324535943e-01 5.248248800029292616e-01 0.000000000000000000e+00
Cu 3.323006115919509007e-01 6.273782277417355724e-01 0.000000000000000000e+00
Cu 3.322797255046801013e-01 7.299196772689567903e-01 0.000000000000000000e+00
Cu 3.323590336382485355e-01 8.324287596108292941e-01 0.000000000000000000e+00
Cu 3.325347160089618948e-01 9.349308018445487978e-01 0.000000000000000000e+00
Cu 4.449488251390801286e-01 1.318751304618260428e-02 0.000000000000000000e+00
Cu 4.445355941478884576e-01 1.154691663762123371e-01 0.000000000000000000e+00
Cu 4.442081217521433589e-01 2.178005140159567643e-01 0.000000000000000000e+00
Cu 4.439621007411274634e-01 3.201746151898356985e-01 0.000000000000000000e+00
Cu 4.437677226931748820e-01 4.225631128422416838e-01 0.000000000000000000e+00
Cu 4.435592545706947831e-01 5.249170468161241665e-01 0.000000000000000000e+00
Cu 4.433693640228116850e-01 6.272890091470634255e-01 0.000000000000000000e+00
Cu 4.432903689696274241e-01 7.297328836967932331e-01 0.000000000000000000e+00
Cu 4.432954450939318725e-01 8.322145029453310583e-01 0.000000000000000000e+00
Cu 4.433383180913768595e-01 9.346971925571979645e-01 0.000000000000000000e+00
Cu 5.562862770478912422e-01 1.373045690410434894e-02 0.000000000000000000e+00
Cu 5.558754117616458990e-01 1.159544197371812357e-01 0.000000000000000000e+00
Cu 5.555518661560356897e-01 2.182327047867320957e-01 0.000000000000000000e+00
Cu 5.553167189040723040e-01 3.205539245205606957e-01 0.000000000000000000e+00
Cu 5.551511407478680882e-01 4.228872987170496089e-01 0.000000000000000000e+00
Cu 5.550024876847418076e-01 5.251653360721247887e-01 0.000000000000000000e+00
Cu 5.546632791879578805e-01 6.272652746589465478e-01 0.000000000000000000e+00
Cu 5.543479526892947096e-01 7.295611704911058037e-01 0.000000000000000000e+00
Cu 5.542689932700681776e-01 8.321244685225592796e-01 0.000000000000000000e+00
Cu 5.542027139315361950e-01 9.346733157928127644e-01 0.000000000000000000e+00
Cu 6.677655837478621015e-01 1.428164397160747688e-02 0.000000000000000000e+00
Cu 6.673469023703622049e-01 1.164260427280847110e-01 0.000000000000000000e+00
Cu 6.670203846038874618e-01 2.186318605415814020e-01 0.000000000000000000e+00
Cu 6.667939888536962290e-01 3.208922560444286143e-01 0.000000000000000000e+00
Cu 6.666696387155646164e-01 4.231928661371817113e-01 0.000000000000000000e+00
Cu 6.666071853089502453e-01 5.254939030900402930e-01 0.000000000000000000e+00
Cu 6.665440906763950846e-01 6.276824176493176477e-01 0.000000000000000000e+00
Cu 6.655313477136404199e-01 7.292177423603104502e-01 0.000000000000000000e+00
Cu 6.648644432307797558e-01 8.320674850232055997e-01 0.000000000000000000e+00
Cu 6.653596685587036541e-01 9.349313072982976536e-01 0.000000000000000000e+00
Cu 7.794292448596640277e-01 1.485204819936025884e-02 0.000000000000000000e+00
Cu 7.789925833307029812e-01 1.168937596456508937e-01 0.000000000000000000e+00
Cu 7.786520456150972658e-01 2.190009711411822768e-01 0.000000000000000000e+00
Cu 7.784209235245072023e-01 3.211705869791537937e-01 0.000000000000000000e+00
Cu 7.783066901224714451e-01 4.234027728821248560e-01 0.000000000000000000e+00
Cu 7.783213266731198177e-01 5.257055005787845126e-01 0.000000000000000000e+00
Cu 7.783603313664119172e-01 6.280909757279425909e-01 0.000000000000000000e+00
Cu 7.786784066326719600e-01 7.305589618433817600e-01 0.000000000000000000e+00
Cu 7.734323585063305195e-01 8.310237003134003375e-01 0.000000000000000000e+00
Cu 7.778481733681503751e-01 9.340550122608890504e-01 0.000000000000000000e+00
Cu 8.913191175678520928e-01 1.545459634428891782e-02 0.000000000000000000e+00
Cu 8.908558876079156752e-01 1.173708815202352262e-01 0.000000000000000000e+00
Cu 8.904944076451111190e-01 2.193505317612531869e-01 0.000000000000000000e+00
Cu 8.902491211178497066e-01 3.213878754161179074e-01 0.000000000000000000e+00
Cu 8.901358163774729659e-01 4.234832200921081480e-01 0.000000000000000000e+00
Cu 8.901546637530947104e-01 5.256462366964265165e-01 0.000000000000000000e+00
Cu 8.904074479913489659e-01 6.278916955230168240e-01 0.000000000000000000e+00
Cu 8.906169256826664826e-01 7.302173346165656831e-01 0.000000000000000000e+00
Cu 8.965974857419337640e-01 8.304827385599614642e-01 0.000000000000000000e+00
Cu 8.930571606062936985e-01 9.334016910312807891e-01 0.000000000000000000e+00
Cu 1.003473151440788413e+00 1.610296735818525504e-02 0.000000000000000000e+00
Cu 1.002979060737461792e+00 1.178730782942500610e-01 0.000000000000000000e+00
Cu 1.002598016265231706e+00 2.196956110823740926e-01 0.000000000000000000e+00
Cu 1.002346911037706789e+00 3.215549531602136524e-01 0.000000000000000000e+00
Cu 1.002245358046018886e+00 4.234371671199951281e-01 0.000000000000000000e+00
Cu 1.002345341469045303e+00 5.253102851211165492e-01 0.000000000000000000e+00
Cu 1.002703278553412236e+00 6.270711527206662694e-01 0.000000000000000000e+00
Cu 1.004251238385632128e+00 7.281815150899475508e-01 0.000000000000000000e+00
Cu 1.005659669212382701e+00 8.306213451954935767e-01 0.000000000000000000e+00
Cu 1.006096392020752184e+00 9.330884210212472274e-01 0.000000000000000000e+00
Cu 1.115921487301118287e+00 1.680957330096536154e-02 0.000000000000000000e+00
Cu 1.115399253679603575e+00 1.184170153147304089e-01 0.000000000000000000e+00
Cu 1.115011597368402940e+00 2.200553336594799070e-01 0.000000000000000000e+00
Cu 1.114775252249136539e+00 3.216946601477388978e-01 0.000000000000000000e+00
Cu 1.114723963814895802e+00 4.233052057395461087e-01 0.000000000000000000e+00
Cu 1.114915871036971984e+00 5.248399217742779621e-01 0.000000000000000000e+00
Cu 1.115554814119675164e+00 6.262046487184516064e-01 0.000000000000000000e+00
Cu 1.116411869905693077e+00 7.277945820976933211e-01 0.000000000000000000e+00
Cu 1.117255189484507083e+00 8.296871016363575047e-01 0.000000000000000000e+00
Cu 1.118284841666667973e+00 9.315762271754429724e-01 0.000000000000000000e+00
Cu 1.228681392432958042e+00 1.758290244559544344e-02 0.000000000000000000e+00
Cu 1.228144059798697008e+00 1.190186842258052907e-01 0.000000000000000000e+00
Cu 1.227774238408981589e+00 2.204535741094125478e-01 0.000000000000000000e+00
Cu 1.227581001203653432e+00 3.218455663041601134e-01 0.000000000000000000e+00
Cu 1.227588906112354827e+00 4.231695991067210283e-01 0.000000000000000000e+00
Cu 1.227851172118052947e+00 5.244201976120397291e-01 0.000000000000000000e+00
Cu 1.228331270619265503e+00 6.257121159708389779e-01 0.000000000000000000e+00
Cu 1.228942480708223650e+00 7.271448431027623949e-01 0.000000000000000000e+00
Cu 1.229709623337370328e+00 8.286872608990962785e-01 0.000000000000000000e+00
Cu 1.230667800088676156e+00 9.302672761933618029e-01 0.000000000000000000e+00
Cu 1.341751842111146509e+00 1.842253903380686175e-02 0.000000000000000000e+00
Cu 1.341226923975089580e+00 1.196883974435125064e-01 0.000000000000000000e+00
Cu 1.340912709454642915e+00 2.209133026961619672e-01 0.000000000000000000e+00
Cu 1.340790716642201064e+00 3.220508266849229084e-01 0.000000000000000000e+00
Cu 1.340852204243506041e+00 4.230992186528297894e-01 0.000000000000000000e+00
Cu 1.341076100721668718e+00 5.241199281539730137e-01 0.000000000000000000e+00
Cu 1.341431178397967994e+00 6.252014742521386781e-01 0.000000000000000000e+00
Cu 1.341921084081307169e+00 7.263934004511808373e-01 0.000000000000000000e+00
Cu 1.342582800725937942e+00 8.276937818387365420e-01 0.000000000000000000e+00
Cu 1.343436519498417470e+00 9.290703082935396484e-01 0.000000000000000000e+00
Cu 1.455109443618785914e+00 1.931018452038314043e-02 0.000000000000000000e+00
Cu 1.454645933104987021e+00 1.204195104092646851e-01 0.000000000000000000e+00
Cu 1.454443613661881907e+00 2.214397007763419800e-01 0.000000000000000000e+00
Cu 1.454434930237529899e+00 3.223264117685094021e-01 0.000000000000000000e+00
Cu 1.454550517703722123e+00 4.231036016460504312e-01 0.000000000000000000e+00
Cu 1.454734545676247714e+00 5.238506803158894387e-01 0.000000000000000000e+00
Cu 1.454975566941093978e+00 6.246614401679329021e-01 0.000000000000000000e+00
Cu 1.455315339535684593e+00 7.256024602129691470e-01 0.000000000000000000e+00
Cu 1.455821201698727307e+00 8.266934314103520087e-01 0.000000000000000000e+00
Cu 1.456558537514713647e+00 9.278950516565540596e-01 0.000000000000000000e+00
Cu 1.568707180472595608e+00 2.019669542506259338e-02 0.000000000000000000e+00
Cu 1.568387374364069942e+00 1.211718974192531467e-01 0.000000000000000000e+00
Cu 1.568384221934498335e+00 2.219957574660928745e-01 0.000000000000000000e+00
Cu 1.568559379114328189e+00 3.226361700534572385e-01 0.000000000000000000e+00
Cu 1.568773463143292579e+00 4.231403580293072730e-01 0.000000000000000000e+00
Cu 1.568930001421618092e+00 5.236035793868025756e-01 0.000000000000000000e+00
Cu 1.569023652698348759e+00 6.241334942601558522e-01 0.000000000000000000e+00
Cu 1.569140441674946373e+00 7.248204809890849143e-01 0.000000000000000000e+00
Cu 1.569411403267876537e+00 8.257070657956294690e-01 0.000000000000000000e+00
Cu 1.569970387283956992e+00 9.267586633030708843e-01 0.000000000000000000e+00
Cu 1.682473301651050468e+00 2.098576672266174933e-02 0.000000000000000000e+00
Cu 1.682435376574284103e+00 1.218530622932989388e-01 0.000000000000000000e+00
Cu 1.682765568630977704e+00 2.224787562496570725e-01 0.000000000000000000e+00
Cu 1.683222740158571762e+00 3.228788557627513822e-01 0.000000000000000000e+00
Cu 1.683585633733005738e+00 4.231565762385021134e-01 0.000000000000000000e+00
Cu 1.683723051061570830e+00 5.234087452213790348e-01 0.000000000000000000e+00
Cu 1.683630814544502474e+00 6.237058409946091286e-01 0.000000000000000000e+00
Cu 1.683431843967315711e+00 7.241427140319595113e-01 0.000000000000000000e+00
Cu 1.683340115120726344e+00 8.248190574819184162e-01 0.000000000000000000e+00
Cu 1.683591708386695140e+00 9.257468340026916431e-01 0.000000000000000000e+00
Cu 1.796301396080504098e+00 2.150803823611039181e-02 0.000000000000000000e+00
Cu 1.796790996795555539e+00 1.222904264544609210e-01 0.000000000000000000e+00
Cu 1.797654327894492976e+00 2.226918937359618211e-01 0.000000000000000000e+00
Cu 1.798472781395462183e+00 3.228854727703088234e-01 0.000000000000000000e+00
Cu 1.798976407874071537e+00 4.230831777143374550e-01 0.000000000000000000e+00
Cu 1.799100640447798272e+00 5.233210538669562650e-01 0.000000000000000000e+00
Cu 1.798841443274519669e+00 6.235333739547898046e-01 0.000000000000000000e+00
Cu 1.798255838286300312e+00 7.237548814224853411e-01 0.000000000000000000e+00
Cu 1.797607897346646277e+00 8.241949621872234344e-01 0.000000000000000000e+00
Cu 1.797312103200145339e+00 9.250229544999701847e-01 0.000000000000000000e+00
Cu 1.910010754215196060e+00 2.144795945851888166e-02 0.000000000000000000e+00
Cu 1.911524552967762025e+00 1.221566482653671654e-01 0.000000000000000000e+00
Cu 1.913175411959760819e+00 2.222985457303889301e-01 0.000000000000000000e+00
Cu 1.914284680230261992e+00 3.224710454207810884e-01 0.000000000000000000e+00
Cu 1.914820835527401011e+00 4.228777157123390640e-01 0.000000000000000000e+00
Cu 1.914936585564582350e+00 5.233708583418650306e-01 0.000000000000000000e+00
Cu 1.914627973910990155e+00 6.237891221387711349e-01 0.000000000000000000e+00
Cu 1.913734750110165139e+00 7.239834334403975058e-01 0.000000000000000000e+00
Cu 1.912282566456819266e+00 8.241546694188887079e-01 0.000000000000000000e+00
Cu 1.910947651270414438e+00 9.248967405691732591e-01 0.000000000000000000e+00
Cu 2.023237492437122143e+00 2.007731595345094155e-02 0.000000000000000000e+00
Cu 2.026933227714786678e+00 1.206964233010542759e-01 0.000000000000000000e+00
Cu 2.029352370919478954e+00 2.209174660655494060e-01 0.000000000000000000e+00
Cu 2.030438247597528445e+00 3.216518696586748161e-01 0.000000000000000000e+00
Cu 2.030941471733412218e+00 4.225642811561186596e-01 0.000000000000000000e+00
Cu 2.031052150766356590e+00 5.235226914424164768e-01 0.000000000000000000e+00
Cu 2.030766761779330132e+00 6.244461472537995439e-01 0.000000000000000000e+00
Cu 2.029888056157923781e+00 7.252004816810011523e-01 0.000000000000000000e+00
Cu 2.027658496466559157e+00 8.254470114439570461e-01 0.000000000000000000e+00
Cu 2.024131456591091727e+00 9.260918624956809841e-01 0.000000000000000000e+00
Cu 2.135129073524908883e+00 1.419150198804190570e-02 0.000000000000000000e+00
Cu 2.143194110550002307e+00 1.167758315162841232e-01 0.000000000000000000e+00
Cu 2.145583186073722004e+00 2.189520582454817788e-01 0.000000000000000000e+00
Cu 2.146730362064817044e+00 3.207035423215122139e-01 0.000000000000000000e+00
Cu 2.147235453155737162e+00 4.222242511902910556e-01 0.000000000000000000e+00
Cu 2.147342945327522123e+00 5.236843301617113422e-01 0.000000000000000000e+00
Cu 2.147050024400400936e+00 6.252184313061048826e-01 0.000000000000000000e+00
Cu 2.146106676533934721e+00 7.269941486685466137e-01 0.000000000000000000e+00
Cu 2.143907339518548838e+00 8.291999458129697409e-01 0.000000000000000000e+00
Cu 2.136012640567765075e+00 9.318146246918083131e-01 0.000000000000000000e+00
