200

Cu 0.000000000000000000e+00 9.442052163364418604e-03 0.000000000000000000e+00
Cu 0.000000000000000000e+00 1.143178940843571911e-01 0.000000000000000000e+00
Cu 0.000000000000000000e+00 2.192542272234382361e-01 0.000000000000000000e+00
Cu 0.000000000000000000e+00 3.242889225356960781e-01 0.000000000000000000e+00
Cu 0.000000000000000000e+00 4.294322208761718329e-01 0.000000000000000000e+00
Cu 0.000000000000000000e+00 5.346801298426655524e-01 0.000000000000000000e+00
Cu 0.000000000000000000e+00 6.400259120148499292e-01 0.000000000000000000e+00
Cu 0.000000000000000000e+00 7.454637562096800840e-01 0.000000000000000000e+00
Cu 0.000000000000000000e+00 8.509842764724222519e-01 0.000000000000000000e+00
Cu 0.000000000000000000e+00 9.565647240829637798e-01 0.000000000000000000e+00
Cu 1.066837600948323250e-01 9.871795110561880013e-03 0.000000000000000000e+00
Cu 1.063040743770804347e-01 1.145359830134702189e-01 0.000000000000000000e+00
Cu 1.060224418034578925e-01 2.194213468113165866e-01 0.000000000000000000e+00
Cu 1.057531781362517215e-01 3.244493977855774647e-01 0.000000000000000000e+00
Cu 1.054911708618871680e-01 4.295981995119058650e-01 0.000000000000000000e+00
Cu 1.052338569189497502e-01 5.348556479765003147e-01 0.000000000000000000e+00
Cu 1.049770022311415502e-01 6.402117657354671199e-01 0.000000000000000000e+00
Cu 1.047131032010017032e-01 7.456628595844780882e-01 0.000000000000000000e+00
Cu 1.044285618016320000e-01 8.512255522265915753e-01 0.000000000000000000e+00
Cu 1.040345556906010771e-01 9.569848461944734375e-01 0.000000000000000000e+00
Cu 2.133168487475575470e-01 1.042985590030918314e-02 0.000000000000000000e+00
Cu 2.126594903976695428e-01 1.151061295417151881e-01 0.000000000000000000e+00
Cu 2.120526183518438856e-01 2.199521004384357159e-01 0.000000000000000000e+00
Cu 2.114951689402091717e-01 3.249711607678124614e-01 0.000000000000000000e+00
Cu 2.109636319721288067e-01 4.301306973761604424e-01 0.000000000000000000e+00
Cu 2.104488095467148545e-01 5.354081731542023048e-01 0.000000000000000000e+00
Cu 2.099388187703238873e-01 6.407881495014899897e-01 0.000000000000000000e+00
Cu 2.094120758814867755e-01 7.462671290328271034e-01 0.000000000000000000e+00
Cu 2.088248189701944757e-01 8.518653986787982912e-01 0.000000000000000000e+00
Cu 2.081481063368439133e-01 9.575923451540185871e-01 0.000000000000000000e+00
Cu 3.199023031206981726e-01 1.125885670180311153e-02 0.000000000000000000e+00
Cu 3.189649596003182319e-01 1.159536168007521129e-01 0.000000000000000000e+00
Cu 3.180626936713805142e-01 2.208133801403099894e-01 0.000000000000000000e+00
Cu 3.172085621265579580e-01 3.258380071355294061e-01 0.000000000000000000e+00
Cu 3.164015395611944337e-01 4.310140255650126151e-01 0.000000000000000000e+00
Cu 3.156309593139827729e-01 5.363171270410653779e-01 0.000000000000000000e+00
Cu 3.148794743758991932e-01 6.417261305103977298e-01 0.000000000000000000e+00
Cu 3.141138921587577348e-01 7.472273695081304012e-01 0.000000000000000000e+00
Cu 3.132921398662090740e-01 8.528129743988108746e-01 0.000000000000000000e+00
Cu 3.123742347174557898e-01 9.584905752673374968e-01 0.000000000000000000e+00
Cu 4.264334992707528582e-01 1.236907153646200040e-02 0.000000000000000000e+00
Cu 4.252069566825086300e-01 1.170876711909573931e-01 0.000000000000000000e+00
Cu 4.240118848043514799e-01 2.219735274206573739e-01 0.000000000000000000e+00
Cu 4.228691859389786534e-01 3.270232035757518751e-01 0.000000000000000000e+00
Cu 4.217894477995932645e-01 4.322215562276510714e-01 0.000000000000000000e+00
Cu 4.207719973073393294e-01 5.375466645438220503e-01 0.000000000000000000e+00
Cu 4.198027504514406649e-01 6.429734933320033763e-01 0.000000000000000000e+00
Cu 4.188493662127499850e-01 7.484761808783246817e-01 0.000000000000000000e+00
Cu 4.178577504612067672e-01 8.540322613765608528e-01 0.000000000000000000e+00
Cu 4.167601616383427299e-01 9.596391852443926229e-01 0.000000000000000000e+00
Cu 5.329063366781037203e-01 1.376631628382845099e-02 0.000000000000000000e+00
Cu 5.313773452593691937e-01 1.185070319879613226e-01 0.000000000000000000e+00
Cu 5.298813642384329059e-01 2.234212651386198734e-01 0.000000000000000000e+00
Cu 5.284539210536848275e-01 3.285009292722566032e-01 0.000000000000000000e+00
Cu 5.271158679777545597e-01 4.337216308546822940e-01 0.000000000000000000e+00
Cu 5.258734387732690863e-01 5.390516822452947610e-01 0.000000000000000000e+00
Cu 5.247214851284934811e-01 6.444651459448302866e-01 0.000000000000000000e+00
Cu 5.236328044251864489e-01 7.499379629881651743e-01 0.000000000000000000e+00
Cu 5.225448564823099717e-01 8.554463301938094455e-01 0.000000000000000000e+00
Cu 5.213576833759095974e-01 9.609643169999860790e-01 0.000000000000000000e+00
Cu 6.393253133495899743e-01 1.546249699510656925e-02 0.000000000000000000e+00
Cu 6.374730889907935794e-01 1.202169211602219789e-01 0.000000000000000000e+00
Cu 6.356593140861721558e-01 2.251491151746386199e-01 0.000000000000000000e+00
Cu 6.339472251098897670e-01 3.302511325425893096e-01 0.000000000000000000e+00
Cu 6.323736585807013810e-01 4.354818222872501865e-01 0.000000000000000000e+00
Cu 6.309512899674375452e-01 5.407893528304189568e-01 0.000000000000000000e+00
Cu 6.296643260395972108e-01 6.461305396085380570e-01 0.000000000000000000e+00
Cu 6.284868706058093224e-01 7.515144173241667946e-01 0.000000000000000000e+00
Cu 6.273674097503930680e-01 8.569338181288893574e-01 0.000000000000000000e+00
Cu 6.262113538339515451e-01 9.623528379119939968e-01 0.000000000000000000e+00
Cu 7.456970284546521333e-01 1.748388656721814455e-02 0.000000000000000000e+00
Cu 7.435002595107161882e-01 1.222398049550087878e-01 0.000000000000000000e+00
Cu 7.413447033778814976e-01 2.271625528687082340e-01 0.000000000000000000e+00
Cu 7.393355103738876721e-01 3.322548000996711215e-01 0.000000000000000000e+00
Cu 7.375599826553956850e-01 4.374707075197067363e-01 0.000000000000000000e+00
Cu 7.360301612626288792e-01 5.427046818751685153e-01 0.000000000000000000e+00
Cu 7.347033932686525270e-01 6.479115200431482258e-01 0.000000000000000000e+00
Cu 7.334557811871365018e-01 7.530931584725191197e-01 0.000000000000000000e+00
Cu 7.323453916482617343e-01 8.583578722517544168e-01 0.000000000000000000e+00
Cu 7.313520085904883228e-01 9.635751409022496050e-01 0.000000000000000000e+00
Cu 8.520162868401184308e-01 1.985696193339555465e-02 0.000000000000000000e+00
Cu 8.494648647992024681e-01 1.246193950873441397e-01 0.000000000000000000e+00
Cu 8.469584920223552915e-01 2.295031753400357810e-01 0.000000000000000000e+00
Cu 8.446220980686067747e-01 3.345115177547878793e-01 0.000000000000000000e+00
Cu 8.426588010852842370e-01 4.396330627896318788e-01 0.000000000000000000e+00
Cu 8.411848337894038963e-01 5.447221762188240168e-01 0.000000000000000000e+00
Cu 8.398954034058921936e-01 6.496691332781681094e-01 0.000000000000000000e+00
Cu 8.386125833573765398e-01 7.547619738918527332e-01 0.000000000000000000e+00
Cu 3.171407946371061826e+00 6.846953512487579108e-01 0.000000000000000000e+00
Cu 3.149134622295288732e+00 7.870389039981319224e-01 0.000000000000000000e+00
Cu 9.582686207354027541e-01 2.261730832623651960e-02 0.000000000000000000e+00
Cu 9.553372803227263566e-01 1.273852462697289967e-01 0.000000000000000000e+00
Cu 9.525193000629357254e-01 2.322737966273536458e-01 0.000000000000000000e+00
Cu 9.498722742053168355e-01 3.371149430114861456e-01 0.000000000000000000e+00
Cu 9.476943868022489337e-01 4.419148947389490711e-01 0.000000000000000000e+00
Cu 9.465951526064073640e-01 5.464743328885901530e-01 0.000000000000000000e+00
Cu 9.452539958508135998e-01 6.514087834823456546e-01 0.000000000000000000e+00
Cu 3.303128059011848361e+00 6.070632996417346661e-01 0.000000000000000000e+00
Cu 3.279148626679598610e+00 7.076734603279541957e-01 0.000000000000000000e+00
Cu 3.259253831136276869e+00 8.070697659010496183e-01 0.000000000000000000e+00
Cu 1.064412654168779060e+00 2.578485961721148356e-02 0.000000000000000000e+00
Cu 1.061092789716627793e+00 1.306048810175450825e-01 0.000000000000000000e+00
Cu 1.057891793819246029e+00 2.354672004234729943e-01 0.000000000000000000e+00
Cu 1.055113612096741704e+00 3.404619504376768524e-01 0.000000000000000000e+00
Cu 3.490176926849258177e+00 3.297384943390788137e-01 0.000000000000000000e+00
Cu 3.456453345035845448e+00 4.284335469093281668e-01 0.000000000000000000e+00
Cu 3.437529654149714453e+00 5.305559599804356985e-01 0.000000000000000000e+00
Cu 3.412794281929904638e+00 6.297271481892895428e-01 0.000000000000000000e+00
Cu 3.392591553141719007e+00 7.278615652373321421e-01 0.000000000000000000e+00
Cu 3.375693810842092191e+00 8.250037734148049084e-01 0.000000000000000000e+00
Cu 1.170423693792426389e+00 2.945205630186857257e-02 0.000000000000000000e+00
Cu 1.166608459640766648e+00 1.342821365770667796e-01 0.000000000000000000e+00
Cu 1.163141471247000736e+00 2.393057546708999284e-01 0.000000000000000000e+00
Cu 3.625916162141401333e+00 2.582628698289906044e-01 0.000000000000000000e+00
Cu 3.595801008897623774e+00 3.575369374945716605e-01 0.000000000000000000e+00
Cu 3.574089810907290499e+00 4.555809500601999962e-01 0.000000000000000000e+00
Cu 3.548436126753861330e+00 5.514778981546286651e-01 0.000000000000000000e+00
Cu 3.528840726568942543e+00 6.490780615237061735e-01 0.000000000000000000e+00
Cu 3.511539578825802810e+00 7.449447854179263029e-01 0.000000000000000000e+00
Cu 3.497486123598472663e+00 8.399872131600196745e-01 0.000000000000000000e+00
Cu 1.276188966959238114e+00 3.360966783253265672e-02 0.000000000000000000e+00
Cu 1.271931726798111173e+00 1.386285091419764970e-01 0.000000000000000000e+00
Cu 3.764916912745504440e+00 1.886469695358845011e-01 0.000000000000000000e+00
Cu 3.734726508428596325e+00 2.860175526083367781e-01 0.000000000000000000e+00
Cu 3.710154413507886328e+00 3.818001893899793386e-01 0.000000000000000000e+00
Cu 3.688304249697144765e+00 4.771231557643999532e-01 0.000000000000000000e+00
Cu 3.668070810201257359e+00 5.718238353971145660e-01 0.000000000000000000e+00
Cu 3.650249295040837172e+00 6.653862997856415662e-01 0.000000000000000000e+00
Cu 3.635629079667217933e+00 7.590541824087934097e-01 0.000000000000000000e+00
Cu 3.623846761724626386e+00 8.521505268041292824e-01 0.000000000000000000e+00
Cu 1.381730520059713641e+00 3.862623216622290689e-02 0.000000000000000000e+00
Cu 3.904014742147416950e+00 1.204663503711683598e-01 0.000000000000000000e+00
Cu 3.875406110615108979e+00 2.168578456982510894e-01 0.000000000000000000e+00
Cu 3.851291470827257424e+00 3.109775717310969134e-01 0.000000000000000000e+00
Cu 3.829932144694847107e+00 4.036767843238200926e-01 0.000000000000000000e+00
Cu 3.810550739936594766e+00 4.958855040491753075e-01 0.000000000000000000e+00
Cu 3.792944467787592089e+00 5.877183712229215873e-01 0.000000000000000000e+00
Cu 3.777343997824230470e+00 6.792186240182552792e-01 0.000000000000000000e+00
Cu 3.764249842592334971e+00 7.705728989016881192e-01 0.000000000000000000e+00
Cu 3.754215344740619464e+00 8.618871229977519421e-01 0.000000000000000000e+00
Cu 4.039834801634683892e+00 5.124322029437004822e-02 0.000000000000000000e+00
Cu 4.015826373337166189e+00 1.476997911508128869e-01 0.000000000000000000e+00
Cu 3.994190153532361620e+00 2.407952189034016088e-01 0.000000000000000000e+00
Cu 3.974542663421309907e+00 3.319298877112628054e-01 0.000000000000000000e+00
Cu 3.956300421035588322e+00 4.220195326255429258e-01 0.000000000000000000e+00
Cu 3.939155731228638491e+00 5.115851001160249822e-01 0.000000000000000000e+00
Cu 3.923253545937640752e+00 6.009849675724909801e-01 0.000000000000000000e+00
Cu 3.909000550439491573e+00 6.904118316720398996e-01 0.000000000000000000e+00
Cu 3.897027791737267322e+00 7.799862987827929084e-01 0.000000000000000000e+00
Cu 3.888067228609112913e+00 8.696926777302741440e-01 0.000000000000000000e+00
Cu 4.152544827664143234e+00 7.385208296298825803e-02 0.000000000000000000e+00
Cu 4.136243908338861353e+00 1.684231900758356160e-01 0.000000000000000000e+00
Cu 4.120079378586104291e+00 2.595756372740182782e-01 0.000000000000000000e+00
Cu 4.104288142917241977e+00 3.487040744713466589e-01 0.000000000000000000e+00
Cu 4.088685296119815682e+00 4.368322350251203079e-01 0.000000000000000000e+00
Cu 4.073310051827537137e+00 5.245364266505702089e-01 0.000000000000000000e+00
Cu 4.058509842001350343e+00 6.120982159392160948e-01 0.000000000000000000e+00
Cu 4.044914863919037096e+00 6.997679787768850135e-01 0.000000000000000000e+00
Cu 4.033386299026019195e+00 7.877798589958053821e-01 0.000000000000000000e+00
Cu 4.024936633527179453e+00 8.761578237890365051e-01 0.000000000000000000e+00
Cu 4.274443858928454354e+00 9.182038606336903608e-02 0.000000000000000000e+00
Cu 4.263720272770419761e+00 1.840932828493761775e-01 0.000000000000000000e+00
Cu 4.252399048103130852e+00 2.736873938015650931e-01 0.000000000000000000e+00
Cu 4.239979747108083785e+00 3.614762394003545043e-01 0.000000000000000000e+00
Cu 4.226468772222858661e+00 4.485379802022063656e-01 0.000000000000000000e+00
Cu 4.212386777184618403e+00 5.353132158715442346e-01 0.000000000000000000e+00
Cu 4.198292299597873090e+00 6.217791055565400349e-01 0.000000000000000000e+00
Cu 4.184790285414858424e+00 7.080846304664187851e-01 0.000000000000000000e+00
Cu 4.172947526201497226e+00 7.947237487743010753e-01 0.000000000000000000e+00
Cu 4.164254622499623970e+00 8.820034078242569020e-01 0.000000000000000000e+00
Cu 4.403533382472622826e+00 1.053400606707641379e-01 0.000000000000000000e+00
Cu 4.397948744078978400e+00 1.955609339586651396e-01 0.000000000000000000e+00
Cu 4.391031813753315305e+00 2.835750250830151864e-01 0.000000000000000000e+00
Cu 4.381205338426754636e+00 3.707429385784838383e-01 0.000000000000000000e+00
Cu 4.368992449616619034e+00 4.578234653684405964e-01 0.000000000000000000e+00
Cu 4.355768434457736760e+00 5.446245569947946175e-01 0.000000000000000000e+00
Cu 4.342274463078328317e+00 6.309741060465338114e-01 0.000000000000000000e+00
Cu 4.328543966074302141e+00 7.164791041507974079e-01 0.000000000000000000e+00
Cu 4.315423804153325271e+00 8.018303441932075337e-01 0.000000000000000000e+00
Cu 4.305247464122805567e+00 8.882704741351148403e-01 0.000000000000000000e+00
Cu 4.537586036380686139e+00 1.129887285689516185e-01 0.000000000000000000e+00
Cu 4.539055885549726277e+00 2.017858610224739502e-01 0.000000000000000000e+00
Cu 4.536256531180304030e+00 2.891117537667407533e-01 0.000000000000000000e+00
Cu 4.527159257304939288e+00 3.775080483148527399e-01 0.000000000000000000e+00
Cu 4.515712718509697687e+00 4.656439826768041801e-01 0.000000000000000000e+00
Cu 4.502997086711198804e+00 5.532389991453592337e-01 0.000000000000000000e+00
Cu 4.489752482083027907e+00 6.402232149875815015e-01 0.000000000000000000e+00
Cu 4.476533888509761638e+00 7.265833141208282164e-01 0.000000000000000000e+00
Cu 4.460913185012095106e+00 8.108937956566780736e-01 0.000000000000000000e+00
Cu 4.446247810322593530e+00 8.967787900122687894e-01 0.000000000000000000e+00
Cu 4.670279482186321829e+00 1.057415422485671191e-01 0.000000000000000000e+00
Cu 4.689920898461746646e+00 1.992028461994933830e-01 0.000000000000000000e+00
Cu 4.685748767881587007e+00 2.922533683344571975e-01 0.000000000000000000e+00
Cu 4.677486442470022432e+00 3.835230026749686938e-01 0.000000000000000000e+00
Cu 4.666226823175646743e+00 4.731916638173356837e-01 0.000000000000000000e+00
Cu 4.653743908362921289e+00 5.617567934354856796e-01 0.000000000000000000e+00
Cu 4.640767621826886291e+00 6.496527556437402540e-01 0.000000000000000000e+00
Cu 4.626866485110454619e+00 7.375346904136387272e-01 0.000000000000000000e+00
Cu 4.612667942104286212e+00 8.266735215502110101e-01 0.000000000000000000e+00
Cu 4.580235666802304983e+00 9.151585436757192493e-01 0.000000000000000000e+00
