200

Cu 0.000000000000000000e+00 1.574816360826757425e-02 0.000000000000000000e+00
Cu 0.000000000000000000e+00 1.179091673024499770e-01 0.000000000000000000e+00
Cu 0.000000000000000000e+00 2.196234298360570936e-01 0.000000000000000000e+00
Cu 0.000000000000000000e+00 3.211454406459899324e-01 0.000000000000000000e+00
Cu 0.000000000000000000e+00 4.226113488650643513e-01 0.000000000000000000e+00
Cu 0.000000000000000000e+00 5.240842491193384856e-01 0.000000000000000000e+00
Cu 0.000000000000000000e+00 6.256120208132088800e-01 0.000000000000000000e+00
Cu 0.000000000000000000e+00 7.272508666835294511e-01 0.000000000000000000e+00
Cu 0.000000000000000000e+00 8.291216272192674097e-01 0.000000000000000000e+00
Cu 0.000000000000000000e+00 9.314543384259929004e-01 0.000000000000000000e+00
Cu 1.144729341917985477e-01 1.773140574246718712e-02 0.000000000000000000e+00
Cu 1.138214381417566312e-01 1.185907864053661054e-01 0.000000000000000000e+00
Cu 1.137484224051965170e-01 2.199126007235515934e-01 0.000000000000000000e+00
Cu 1.137005777627949910e-01 3.212881363095007048e-01 0.000000000000000000e+00
Cu 1.136461403427460742e-01 4.226646838396448391e-01 0.000000000000000000e+00
Cu 1.135810670052823518e-01 5.240636160862939263e-01 0.000000000000000000e+00
Cu 1.135085249529420304e-01 6.255072328214592581e-01 0.000000000000000000e+00
Cu 1.134381034582093994e-01 7.270088167563101278e-01 0.000000000000000000e+00
Cu 1.134039409015006883e-01 8.285098865706107540e-01 0.000000000000000000e+00
Cu 1.139316974228702928e-01 9.296161287540992690e-01 0.000000000000000000e+00
Cu 2.286925630149427846e-01 1.870312601828066565e-02 0.000000000000000000e+00
Cu 2.280855378944129097e-01 1.195195710311551113e-01 0.000000000000000000e+00
Cu 2.277292625149504313e-01 2.204729361309880065e-01 0.000000000000000000e+00
Cu 2.275623042075447522e-01 3.216112980100992447e-01 0.000000000000000000e+00
Cu 2.274234002235727692e-01 4.228205266828294895e-01 0.000000000000000000e+00
Cu 2.272873566364176368e-01 5.240719714235613225e-01 0.000000000000000000e+00
Cu 2.271661131112044929e-01 6.253554565520349495e-01 0.000000000000000000e+00
Cu 2.270955868330904459e-01 7.266266833414707360e-01 0.000000000000000000e+00
Cu 2.272250678376801225e-01 8.277711181003197805e-01 0.000000000000000000e+00
Cu 2.276096889886853603e-01 9.288403702846875776e-01 0.000000000000000000e+00
Cu 3.428789944092205388e-01 1.948517569683350451e-02 0.000000000000000000e+00
Cu 3.423349621883701732e-01 1.202754622204120910e-01 0.000000000000000000e+00
Cu 3.419230585418774337e-01 2.211302132336769866e-01 0.000000000000000000e+00
Cu 3.416396001368942059e-01 3.220739250791150310e-01 0.000000000000000000e+00
Cu 3.414127776170471362e-01 4.230813189794195850e-01 0.000000000000000000e+00
Cu 3.411946208961973426e-01 5.241236542839152746e-01 0.000000000000000000e+00
Cu 3.410237754638315022e-01 6.251992856536486842e-01 0.000000000000000000e+00
Cu 3.409617511750046015e-01 7.262672091601013458e-01 0.000000000000000000e+00
Cu 3.410328570299971940e-01 8.273051658869930991e-01 0.000000000000000000e+00
Cu 3.412339389968415126e-01 9.283540350634457150e-01 0.000000000000000000e+00
Cu 4.571142635260076470e-01 2.018863308805583096e-02 0.000000000000000000e+00
Cu 4.566134313181748894e-01 1.209446643362453305e-01 0.000000000000000000e+00
Cu 4.562143696771920331e-01 2.217482831189156178e-01 0.000000000000000000e+00
Cu 4.559114075160241031e-01 3.225969173956690361e-01 0.000000000000000000e+00
Cu 4.556630267453440353e-01 4.234575515244195509e-01 0.000000000000000000e+00
Cu 4.553726763707251490e-01 5.242641423159069003e-01 0.000000000000000000e+00
Cu 4.550828788929089930e-01 6.250935696079571446e-01 0.000000000000000000e+00
Cu 4.549255515021657370e-01 7.260332825096452725e-01 0.000000000000000000e+00
Cu 4.548696258282183269e-01 8.270453083333795252e-01 0.000000000000000000e+00
Cu 4.548598235099023390e-01 9.280880868379698390e-01 0.000000000000000000e+00
Cu 5.714437188132195367e-01 2.085283156008480715e-02 0.000000000000000000e+00
Cu 5.709728251787652420e-01 1.215537678461954540e-01 0.000000000000000000e+00
Cu 5.705996221167364268e-01 2.223066277470314434e-01 0.000000000000000000e+00
Cu 5.703254423035830634e-01 3.231024858437737679e-01 0.000000000000000000e+00
Cu 5.701227598544060804e-01 4.239051748122582564e-01 0.000000000000000000e+00
Cu 5.699227911556652426e-01 5.246283179889562609e-01 0.000000000000000000e+00
Cu 5.694190200983364480e-01 6.250959554739629054e-01 0.000000000000000000e+00
Cu 5.689171210742050011e-01 7.258404255551981210e-01 0.000000000000000000e+00
Cu 5.687169396724722770e-01 8.269877386604597147e-01 0.000000000000000000e+00
Cu 5.685129900968294292e-01 9.281471802645008262e-01 0.000000000000000000e+00
Cu 6.859125533951764275e-01 2.149227483239028041e-02 0.000000000000000000e+00
Cu 6.854593033628777476e-01 1.221139145703828560e-01 0.000000000000000000e+00
Cu 6.851046772940114771e-01 2.227961060178298702e-01 0.000000000000000000e+00
Cu 6.848584173910814421e-01 3.235363094631483749e-01 0.000000000000000000e+00
Cu 6.847230827883487025e-01 4.243216332302336968e-01 0.000000000000000000e+00
Cu 6.846375089026197625e-01 5.251029334181090968e-01 0.000000000000000000e+00
Cu 6.845426429422265535e-01 6.257362713084620998e-01 0.000000000000000000e+00
Cu 6.830212505759096775e-01 7.254286033713154280e-01 0.000000000000000000e+00
Cu 6.819954338742073574e-01 8.270028799567711308e-01 0.000000000000000000e+00
Cu 6.824896791149049902e-01 9.286642535327209735e-01 0.000000000000000000e+00
Cu 8.005680898968072778e-01 2.211989916720912691e-02 0.000000000000000000e+00
Cu 8.001202914396926547e-01 1.226360598758886311e-01 0.000000000000000000e+00
Cu 7.997704687147350056e-01 2.232177551023185047e-01 0.000000000000000000e+00
Cu 7.995359233169334612e-01 3.238682009244804316e-01 0.000000000000000000e+00
Cu 7.994244633908432762e-01 4.245949390059152173e-01 0.000000000000000000e+00
Cu 7.994573731328588062e-01 5.254166547838183821e-01 0.000000000000000000e+00
Cu 7.994621999746149843e-01 6.263568594948348833e-01 0.000000000000000000e+00
Cu 7.999457049846550039e-01 7.274475946172599405e-01 0.000000000000000000e+00
Cu 7.921606877956642867e-01 8.256565781913401958e-01 0.000000000000000000e+00
Cu 7.983505818965670464e-01 9.276085304112812180e-01 0.000000000000000000e+00
Cu 9.154574551928051918e-01 2.275106530025967216e-02 0.000000000000000000e+00
Cu 9.150045959463094514e-01 1.231357908693696823e-01 0.000000000000000000e+00
Cu 9.146510054568193215e-01 2.235829875371909969e-01 0.000000000000000000e+00
Cu 9.144151734866439174e-01 3.240927358274473535e-01 0.000000000000000000e+00
Cu 9.143189512709374300e-01 4.246728096665254859e-01 0.000000000000000000e+00
Cu 9.143561835616660360e-01 5.253441275449965975e-01 0.000000000000000000e+00
Cu 9.146954879627469115e-01 6.261337574973376841e-01 0.000000000000000000e+00
Cu 9.147985431082392704e-01 7.270746103519009074e-01 0.000000000000000000e+00
Cu 9.233650035596047134e-01 8.250547396210312634e-01 0.000000000000000000e+00
Cu 9.181229159620182267e-01 9.269100797729474817e-01 0.000000000000000000e+00
Cu 1.030623307998442595e+00 2.340259075964737714e-02 0.000000000000000000e+00
Cu 1.030159768751062632e+00 1.236324003233115476e-01 0.000000000000000000e+00
Cu 1.029803781703556131e+00 2.239104700144683158e-01 0.000000000000000000e+00
Cu 1.029578173259242169e+00 3.242233758722636305e-01 0.000000000000000000e+00
Cu 1.029507863222729247e+00 4.245587094474541079e-01 0.000000000000000000e+00
Cu 1.029668795763492906e+00 5.248776134537346261e-01 0.000000000000000000e+00
Cu 1.030110221702594808e+00 6.250496829453754399e-01 0.000000000000000000e+00
Cu 1.032226134012694807e+00 7.242835213928688898e-01 0.000000000000000000e+00
Cu 1.034057202663509534e+00 8.254134499422416393e-01 0.000000000000000000e+00
Cu 1.034565645783922960e+00 9.266493098148369523e-01 0.000000000000000000e+00
Cu 1.146098816476409876e+00 2.409068317834597850e-02 0.000000000000000000e+00
Cu 1.145626544385859535e+00 1.241476047178428632e-01 0.000000000000000000e+00
Cu 1.145283524582846324e+00 2.242258521101542779e-01 0.000000000000000000e+00
Cu 1.145093035958000272e+00 3.242928361917706281e-01 0.000000000000000000e+00
Cu 1.145101776678906669e+00 4.243131188366641160e-01 0.000000000000000000e+00
Cu 1.145384290633024493e+00 5.242268639155260868e-01 0.000000000000000000e+00
Cu 1.146241904245985266e+00 6.238951325276433924e-01 0.000000000000000000e+00
Cu 1.147351909966398020e+00 7.238756016918230785e-01 0.000000000000000000e+00
Cu 1.148391400570623500e+00 8.243018793701104574e-01 0.000000000000000000e+00
Cu 1.149628930110195402e+00 9.247553555108860568e-01 0.000000000000000000e+00
Cu 1.261901168368098736e+00 2.482814515946305672e-02 0.000000000000000000e+00
Cu 1.261433170238723367e+00 1.247038698459753542e-01 0.000000000000000000e+00
Cu 1.261130567982041928e+00 2.245627594533619320e-01 0.000000000000000000e+00
Cu 1.261008949929368850e+00 3.243562037278387433e-01 0.000000000000000000e+00
Cu 1.261102767992940743e+00 4.240540903278519069e-01 0.000000000000000000e+00
Cu 1.261490361573186281e+00 5.236464012032715498e-01 0.000000000000000000e+00
Cu 1.262124420829699112e+00 6.232902861613506262e-01 0.000000000000000000e+00
Cu 1.262882524288442054e+00 7.231320798797524763e-01 0.000000000000000000e+00
Cu 1.263791554877761625e+00 8.231375203828245057e-01 0.000000000000000000e+00
Cu 1.264886065819982086e+00 9.232194642233396698e-01 0.000000000000000000e+00
Cu 1.378024912497168630e+00 2.561856898770161969e-02 0.000000000000000000e+00
Cu 1.377589617382990905e+00 1.253184013089777837e-01 0.000000000000000000e+00
Cu 1.377368789029789209e+00 2.249551337095186121e-01 0.000000000000000000e+00
Cu 1.377344886264064039e+00 3.244749488442941199e-01 0.000000000000000000e+00
Cu 1.377513115122017684e+00 4.238768143365780339e-01 0.000000000000000000e+00
Cu 1.377849810098582539e+00 5.232406394077160350e-01 0.000000000000000000e+00
Cu 1.378311958556883265e+00 6.226844631723182921e-01 0.000000000000000000e+00
Cu 1.378898592883562646e+00 7.222763237945870607e-01 0.000000000000000000e+00
Cu 1.379649869487353353e+00 8.220188151812212185e-01 0.000000000000000000e+00
Cu 1.380581852435961876e+00 9.218759110899238385e-01 0.000000000000000000e+00
Cu 1.494437030437281155e+00 2.644527453270151263e-02 0.000000000000000000e+00
Cu 1.494086734403802907e+00 1.259890685945516675e-01 0.000000000000000000e+00
Cu 1.494008589908045082e+00 2.254158455937937677e-01 0.000000000000000000e+00
Cu 1.494126051612028050e+00 3.246749217826811473e-01 0.000000000000000000e+00
Cu 1.494359168914571212e+00 4.237984468249152425e-01 0.000000000000000000e+00
Cu 1.494640869557631424e+00 5.228863711528475289e-01 0.000000000000000000e+00
Cu 1.494954427031923716e+00 6.220556923461388887e-01 0.000000000000000000e+00
Cu 1.495345730603003798e+00 7.213900996321787051e-01 0.000000000000000000e+00
Cu 1.495890646647953348e+00 8.209169185310136729e-01 0.000000000000000000e+00
Cu 1.496661764778528525e+00 9.205915504232129454e-01 0.000000000000000000e+00
Cu 1.611075558902480998e+00 2.725506949326051212e-02 0.000000000000000000e+00
Cu 1.610900753339415070e+00 1.266739852678883671e-01 0.000000000000000000e+00
Cu 1.611061835625737126e+00 2.259067349164397831e-01 0.000000000000000000e+00
Cu 1.611396799158214543e+00 3.249173564988703800e-01 0.000000000000000000e+00
Cu 1.611742592090446680e+00 4.237652569022790083e-01 0.000000000000000000e+00
Cu 1.611985514818265353e+00 5.225664041401564264e-01 0.000000000000000000e+00
Cu 1.612117125615647684e+00 6.214505675037209631e-01 0.000000000000000000e+00
Cu 1.612235062822647391e+00 7.205271012364351524e-01 0.000000000000000000e+00
Cu 1.612490110952977007e+00 8.198489456677144904e-01 0.000000000000000000e+00
Cu 1.613037673015952800e+00 9.193763258334997079e-01 0.000000000000000000e+00
Cu 1.727848084529288286e+00 2.793812215873305374e-02 0.000000000000000000e+00
Cu 1.728004532391445913e+00 1.272686445925131082e-01 0.000000000000000000e+00
Cu 1.728557087729320818e+00 2.263112315998409563e-01 0.000000000000000000e+00
Cu 1.729221069465515237e+00 3.250846992418152670e-01 0.000000000000000000e+00
Cu 1.729737605241687959e+00 4.237131170103562439e-01 0.000000000000000000e+00
Cu 1.729953245610247103e+00 5.223129578384532179e-01 0.000000000000000000e+00
Cu 1.729861267866369401e+00 6.209690454089913381e-01 0.000000000000000000e+00
Cu 1.729602187448195494e+00 7.197949795897062852e-01 0.000000000000000000e+00
Cu 1.729424081792712231e+00 8.189098412962371176e-01 0.000000000000000000e+00
Cu 1.729604290557946955e+00 9.183267775629126994e-01 0.000000000000000000e+00
Cu 1.844618834025132603e+00 2.829702239276031886e-02 0.000000000000000000e+00
Cu 1.845388409916807637e+00 1.275736954788251332e-01 0.000000000000000000e+00
Cu 1.846565229393556384e+00 2.264008899281338416e-01 0.000000000000000000e+00
Cu 1.847653186506405865e+00 3.249789930354660683e-01 0.000000000000000000e+00
Cu 1.848333274408283655e+00 4.235597141100219121e-01 0.000000000000000000e+00
Cu 1.848530188726921208e+00 5.221885196870330592e-01 0.000000000000000000e+00
Cu 1.848237382996992695e+00 6.207901722191794258e-01 0.000000000000000000e+00
Cu 1.847518095423575701e+00 7.194082567656950866e-01 0.000000000000000000e+00
Cu 1.846682359214594227e+00 8.182908308875723735e-01 0.000000000000000000e+00
Cu 1.846220310720825042e+00 9.176333718408621332e-01 0.000000000000000000e+00
Cu 1.961156995375900047e+00 2.796185000050169234e-02 0.000000000000000000e+00
Cu 1.963119342946578527e+00 1.272072491453715981e-01 0.000000000000000000e+00
Cu 1.965229267647983669e+00 2.257786781882043237e-01 0.000000000000000000e+00
Cu 1.966667430050702103e+00 3.243784232779940990e-01 0.000000000000000000e+00
Cu 1.967387823554252124e+00 4.232530145793071963e-01 0.000000000000000000e+00
Cu 1.967572936172323317e+00 5.222283526196540571e-01 0.000000000000000000e+00
Cu 1.967216234772587891e+00 6.211196881402840653e-01 0.000000000000000000e+00
Cu 1.966122810421664369e+00 7.197509948059683804e-01 0.000000000000000000e+00
Cu 1.964329165440005687e+00 8.183650068457314353e-01 0.000000000000000000e+00
Cu 1.962651162377781144e+00 9.176594940326138206e-01 0.000000000000000000e+00
Cu 2.076983195339359600e+00 2.606977907355414667e-02 0.000000000000000000e+00
Cu 2.081535117344692321e+00 1.252761805991338684e-01 0.000000000000000000e+00
Cu 2.084591530627800005e+00 2.239773643812524584e-01 0.000000000000000000e+00
Cu 2.086008056180279180e+00 3.232960834379158266e-01 0.000000000000000000e+00
Cu 2.086699191119669283e+00 4.228175035110424140e-01 0.000000000000000000e+00
Cu 2.086877486479905119e+00 5.223919698169171566e-01 0.000000000000000000e+00
Cu 2.086537036609111162e+00 6.219299310398136438e-01 0.000000000000000000e+00
Cu 2.085453224111845749e+00 7.212784193100455488e-01 0.000000000000000000e+00
Cu 2.082699639005408443e+00 8.200180298562281811e-01 0.000000000000000000e+00
Cu 2.078414962530124477e+00 9.192636783642992304e-01 0.000000000000000000e+00
Cu 2.190883611629159233e+00 1.875368031948505126e-02 0.000000000000000000e+00
Cu 2.200930201762746119e+00 1.203679156408963141e-01 0.000000000000000000e+00
Cu 2.203936863888691811e+00 2.214811541472518353e-01 0.000000000000000000e+00
Cu 2.205450607918635342e+00 3.220584722404448152e-01 0.000000000000000000e+00
Cu 2.206147166341929644e+00 4.223493896868975583e-01 0.000000000000000000e+00
Cu 2.206321267320813906e+00 5.225675449340732026e-01 0.000000000000000000e+00
Cu 2.205968098820259016e+00 6.228794029384594477e-01 0.000000000000000000e+00
Cu 2.204783449795017614e+00 7.234947893047473100e-01 0.000000000000000000e+00
Cu 2.202081407399463675e+00 8.246546814379138723e-01 0.000000000000000000e+00
Cu 2.192304921999452816e+00 9.263193224061323505e-01 0.000000000000000000e+00
