200

Cu 0.000000000000000000e+00 5.973858381218698395e-03 0.000000000000000000e+00
Cu 0.000000000000000000e+00 1.105558294457564678e-01 0.000000000000000000e+00
Cu 0.000000000000000000e+00 2.152329739876688575e-01 0.000000000000000000e+00
Cu 0.000000000000000000e+00 3.200719806967476933e-01 0.000000000000000000e+00
Cu 0.000000000000000000e+00 4.250927633281947338e-01 0.000000000000000000e+00
Cu 0.000000000000000000e+00 5.302908445602168008e-01 0.000000000000000000e+00
Cu 0.000000000000000000e+00 6.356570023416999726e-01 0.000000000000000000e+00
Cu 0.000000000000000000e+00 7.411834827213782395e-01 0.000000000000000000e+00
Cu 0.000000000000000000e+00 8.468564301471458444e-01 0.000000000000000000e+00
Cu 0.000000000000000000e+00 9.526388673273438190e-01 0.000000000000000000e+00
Cu 1.077162553880623985e-01 6.710846650778596288e-03 0.000000000000000000e+00
Cu 1.070751661457454568e-01 1.109294680913578135e-01 0.000000000000000000e+00
Cu 1.066002178738027217e-01 2.155181068582013582e-01 0.000000000000000000e+00
Cu 1.061447908737329360e-01 3.203448520497474417e-01 0.000000000000000000e+00
Cu 1.057002251622000677e-01 4.253743608796148878e-01 0.000000000000000000e+00
Cu 1.052620908594920357e-01 5.305882085105239065e-01 0.000000000000000000e+00
Cu 1.048232473994528957e-01 6.359715336921020201e-01 0.000000000000000000e+00
Cu 1.043711386045100414e-01 7.415199793549789309e-01 0.000000000000000000e+00
Cu 1.038829198236850271e-01 8.472632310847503234e-01 0.000000000000000000e+00
Cu 1.032091588018206885e-01 9.533461712985337178e-01 0.000000000000000000e+00
Cu 2.153441175230932647e-01 7.665074561153427564e-03 0.000000000000000000e+00
Cu 2.142364430333163761e-01 1.119015820408382489e-01 0.000000000000000000e+00
Cu 2.132122809919967665e-01 2.164213273059455989e-01 0.000000000000000000e+00
Cu 2.122691948864674494e-01 3.212315190872324644e-01 0.000000000000000000e+00
Cu 2.113669943366605908e-01 4.262785205107668673e-01 0.000000000000000000e+00
Cu 2.104900970268207272e-01 5.315260151297436231e-01 0.000000000000000000e+00
Cu 2.096184997079195422e-01 6.369496474786524587e-01 0.000000000000000000e+00
Cu 2.087159043111330714e-01 7.425450362227012935e-01 0.000000000000000000e+00
Cu 2.077086621602332317e-01 8.483476608806935770e-01 0.000000000000000000e+00
Cu 2.065485633104395813e-01 9.543741593906545084e-01 0.000000000000000000e+00
Cu 3.228883450527542109e-01 9.078184290000767750e-03 0.000000000000000000e+00
Cu 3.213098418275533441e-01 1.133445069586022647e-01 0.000000000000000000e+00
Cu 3.197870003534704075e-01 2.178858622336307116e-01 0.000000000000000000e+00
Cu 3.183414847794789337e-01 3.227041837125111945e-01 0.000000000000000000e+00
Cu 3.169711790327797152e-01 4.277784629831083985e-01 0.000000000000000000e+00
Cu 3.156580334890428108e-01 5.330692970756969462e-01 0.000000000000000000e+00
Cu 3.143729900372886354e-01 6.385424297329888033e-01 0.000000000000000000e+00
Cu 3.130603582964780474e-01 7.441759176281974586e-01 0.000000000000000000e+00
Cu 3.116496439308621969e-01 8.499572293883150831e-01 0.000000000000000000e+00
Cu 3.100738027058400625e-01 9.559000499459179290e-01 0.000000000000000000e+00
Cu 4.303363269614294828e-01 1.096905878375215374e-02 0.000000000000000000e+00
Cu 4.282707339110208844e-01 1.152736114294632269e-01 0.000000000000000000e+00
Cu 4.262532334449199434e-01 2.198575465018021424e-01 0.000000000000000000e+00
Cu 4.243185891259013132e-01 3.247171772256056133e-01 0.000000000000000000e+00
Cu 4.224844250882744401e-01 4.298288748483536925e-01 0.000000000000000000e+00
Cu 4.207496474813870457e-01 5.351573205119666277e-01 0.000000000000000000e+00
Cu 4.190909698476652512e-01 6.406616888567330248e-01 0.000000000000000000e+00
Cu 4.174546093008875136e-01 7.462992002153150395e-01 0.000000000000000000e+00
Cu 4.157500343470879600e-01 8.520321284387735172e-01 0.000000000000000000e+00
Cu 4.138635457870434298e-01 9.578559523490575156e-01 0.000000000000000000e+00
Cu 5.376796408536780314e-01 1.334797293259954755e-02 0.000000000000000000e+00
Cu 5.351037796653368428e-01 1.176870661505656085e-01 0.000000000000000000e+00
Cu 5.325771933503063993e-01 2.223169479902136481e-01 0.000000000000000000e+00
Cu 5.301593269074321713e-01 3.272263654657835974e-01 0.000000000000000000e+00
Cu 5.278852527212376522e-01 4.323760397123919685e-01 0.000000000000000000e+00
Cu 5.257657482158829554e-01 5.377140255017786030e-01 0.000000000000000000e+00
Cu 5.237927806872093583e-01 6.431978106233089409e-01 0.000000000000000000e+00
Cu 5.219217389490912185e-01 7.487875981802663006e-01 0.000000000000000000e+00
Cu 5.200483806629271344e-01 8.544428893133483305e-01 0.000000000000000000e+00
Cu 5.180049575693039809e-01 9.601183992250849064e-01 0.000000000000000000e+00
Cu 6.449241264138594332e-01 1.623587322071663383e-02 0.000000000000000000e+00
Cu 6.418021054873478404e-01 1.205940533545992455e-01 0.000000000000000000e+00
Cu 6.387370740082219944e-01 2.252512687938277025e-01 0.000000000000000000e+00
Cu 6.358354079502434031e-01 3.301974082029866531e-01 0.000000000000000000e+00
Cu 6.331596849068197308e-01 4.353650663443431879e-01 0.000000000000000000e+00
Cu 6.307319017394455996e-01 5.406677001846506014e-01 0.000000000000000000e+00
Cu 6.285264349780509407e-01 6.460327770183011964e-01 0.000000000000000000e+00
Cu 6.265003021351934764e-01 7.514756915287404970e-01 0.000000000000000000e+00
Cu 6.245686491740577440e-01 8.569847003475855596e-01 0.000000000000000000e+00
Cu 6.225739941309194059e-01 9.624972413851227149e-01 0.000000000000000000e+00
Cu 7.520785710604309671e-01 1.967809735250073550e-02 0.000000000000000000e+00
Cu 7.483738789811511527e-01 1.240334532796477651e-01 0.000000000000000000e+00
Cu 7.447292738833809489e-01 2.286699142809940910e-01 0.000000000000000000e+00
Cu 7.413219571434814803e-01 3.335976774521047239e-01 0.000000000000000000e+00
Cu 7.383009926538856016e-01 4.387427315909484538e-01 0.000000000000000000e+00
Cu 7.356886995518370220e-01 5.439264461162889308e-01 0.000000000000000000e+00
Cu 7.334136948043602500e-01 6.490703287144505840e-01 0.000000000000000000e+00
Cu 7.312671002490175320e-01 7.541755868118641404e-01 0.000000000000000000e+00
Cu 7.293454991729984016e-01 8.594268001578826421e-01 0.000000000000000000e+00
Cu 7.276262472613915788e-01 9.646027200130689039e-01 0.000000000000000000e+00
Cu 8.591313827118243207e-01 2.372020790874104432e-02 0.000000000000000000e+00
Cu 8.548262042017146234e-01 1.280800127819095857e-01 0.000000000000000000e+00
Cu 8.505871158118475384e-01 2.326450326819839987e-01 0.000000000000000000e+00
Cu 8.466227821950459420e-01 3.374262681187579771e-01 0.000000000000000000e+00
Cu 8.432801945681746014e-01 4.424153344264645793e-01 0.000000000000000000e+00
Cu 8.407624098389039347e-01 5.473642100889154483e-01 0.000000000000000000e+00
Cu 8.385526966680189043e-01 6.520762082598976495e-01 0.000000000000000000e+00
Cu 8.363428315502661192e-01 7.570375309849739498e-01 0.000000000000000000e+00
Cu 2.712916110909033396e+00 6.910504938010433307e-01 0.000000000000000000e+00
Cu 2.691663452875514118e+00 7.936438617749230762e-01 0.000000000000000000e+00
Cu 9.660546421019473584e-01 2.842194047760172176e-02 0.000000000000000000e+00
Cu 9.611059005618386442e-01 1.327833824822040043e-01 0.000000000000000000e+00
Cu 9.563367821449059170e-01 2.373515652055297187e-01 0.000000000000000000e+00
Cu 9.518471679339554070e-01 3.418477558341114220e-01 0.000000000000000000e+00
Cu 9.481353066831256227e-01 4.462909675038904678e-01 0.000000000000000000e+00
Cu 9.462654895236758401e-01 5.503603995382524428e-01 0.000000000000000000e+00
Cu 9.439651558977786294e-01 6.550586135764359108e-01 0.000000000000000000e+00
Cu 2.843544977559862907e+00 6.119756580300343973e-01 0.000000000000000000e+00
Cu 2.820634771610933011e+00 7.129403953693295160e-01 0.000000000000000000e+00
Cu 2.801618127603096919e+00 8.127086495328141869e-01 0.000000000000000000e+00
Cu 1.072775446893917461e+00 3.381601556315965568e-02 0.000000000000000000e+00
Cu 1.067166361583182566e+00 1.382552962097804150e-01 0.000000000000000000e+00
Cu 1.061747502974119906e+00 2.427734305950069726e-01 0.000000000000000000e+00
Cu 1.057023320658865728e+00 3.475335744895478030e-01 0.000000000000000000e+00
Cu 3.027276749853772930e+00 3.323492767702575512e-01 0.000000000000000000e+00
Cu 2.994904299141165627e+00 4.315805794767867964e-01 0.000000000000000000e+00
Cu 2.976754739823434193e+00 5.339599714654214013e-01 0.000000000000000000e+00
Cu 2.953090202811598619e+00 6.335780863673364793e-01 0.000000000000000000e+00
Cu 2.933752250007354068e+00 7.321520457879429067e-01 0.000000000000000000e+00
Cu 2.917584200746734524e+00 8.297492446747468664e-01 0.000000000000000000e+00
Cu 1.179246199393203520e+00 4.005486775989641757e-02 0.000000000000000000e+00
Cu 1.172798143310114227e+00 1.444972239167741368e-01 0.000000000000000000e+00
Cu 1.166916496837710371e+00 2.492825241770210698e-01 0.000000000000000000e+00
Cu 3.161962028035103511e+00 2.593237923141620827e-01 0.000000000000000000e+00
Cu 3.132996932677679869e+00 3.590393387745708376e-01 0.000000000000000000e+00
Cu 3.112085770082142044e+00 4.574974144578179414e-01 0.000000000000000000e+00
Cu 3.087464931859228656e+00 5.539640510862892109e-01 0.000000000000000000e+00
Cu 3.068677588391196309e+00 6.520141568683380795e-01 0.000000000000000000e+00
Cu 3.052106936934347647e+00 7.483989341494320380e-01 0.000000000000000000e+00
Cu 3.038649996554593891e+00 8.439639167388455210e-01 0.000000000000000000e+00
Cu 1.285274971884867945e+00 4.711974585780500518e-02 0.000000000000000000e+00
Cu 1.278067567404012062e+00 1.518624819361980849e-01 0.000000000000000000e+00
Cu 3.299837218428917751e+00 1.881603173960176012e-01 0.000000000000000000e+00
Cu 3.270714635175905549e+00 2.860213192558754836e-01 0.000000000000000000e+00
Cu 3.247006571474236658e+00 3.823149445987751860e-01 0.000000000000000000e+00
Cu 3.225965915893896696e+00 4.781654257028878918e-01 0.000000000000000000e+00
Cu 3.206503481412138701e+00 5.734116364537186206e-01 0.000000000000000000e+00
Cu 3.189391158965040773e+00 6.675670946809296735e-01 0.000000000000000000e+00
Cu 3.175368322216800543e+00 7.618099217438769610e-01 0.000000000000000000e+00
Cu 3.164082080111087603e+00 8.554880875755631608e-01 0.000000000000000000e+00
Cu 1.390875182710572311e+00 5.562140990410509300e-02 0.000000000000000000e+00
Cu 3.437857126139231667e+00 1.184835229881279622e-01 0.000000000000000000e+00
Cu 3.410180313444738154e+00 2.153756846207677267e-01 0.000000000000000000e+00
Cu 3.386843636844139027e+00 3.100495776472180220e-01 0.000000000000000000e+00
Cu 3.366206635565801353e+00 4.033519187755951196e-01 0.000000000000000000e+00
Cu 3.347510148820795894e+00 4.961721025556525277e-01 0.000000000000000000e+00
Cu 3.330553959004751707e+00 5.886293557826516309e-01 0.000000000000000000e+00
Cu 3.315549416247152603e+00 6.807667458395120219e-01 0.000000000000000000e+00
Cu 3.302974102061886352e+00 7.727610074510640192e-01 0.000000000000000000e+00
Cu 3.293351139700358310e+00 8.647054483132966540e-01 0.000000000000000000e+00
Cu 3.572760257694588049e+00 4.790963820527179007e-02 0.000000000000000000e+00
Cu 3.549429263404479062e+00 1.448307985828886091e-01 0.000000000000000000e+00
Cu 3.528409031889003344e+00 2.385041247814030096e-01 0.000000000000000000e+00
Cu 3.509363472242743143e+00 3.302810201569943427e-01 0.000000000000000000e+00
Cu 3.491714703371696871e+00 4.210339039068480838e-01 0.000000000000000000e+00
Cu 3.475157575980587943e+00 5.112744059911239480e-01 0.000000000000000000e+00
Cu 3.459820219963761989e+00 6.013542408147894980e-01 0.000000000000000000e+00
Cu 3.446089621500183942e+00 6.914640635037054839e-01 0.000000000000000000e+00
Cu 3.434569161719685404e+00 7.817192324428180461e-01 0.000000000000000000e+00
Cu 3.425959584623667009e+00 8.720991664269260868e-01 0.000000000000000000e+00
Cu 3.685135873328153178e+00 6.989875709609139065e-02 0.000000000000000000e+00
Cu 3.669174959969295546e+00 1.649566740460212677e-01 0.000000000000000000e+00
Cu 3.653431745858988222e+00 2.567306354817870950e-01 0.000000000000000000e+00
Cu 3.638106827488373884e+00 3.465352951810561355e-01 0.000000000000000000e+00
Cu 3.623004522678232586e+00 4.353629793286168947e-01 0.000000000000000000e+00
Cu 3.608143205685467869e+00 5.237756050200329527e-01 0.000000000000000000e+00
Cu 3.593848892716291044e+00 6.120506532568004143e-01 0.000000000000000000e+00
Cu 3.580725951205440794e+00 7.004347210685905045e-01 0.000000000000000000e+00
Cu 3.569604243768481844e+00 7.891577714224414786e-01 0.000000000000000000e+00
Cu 3.561458082440861261e+00 8.782425075221634847e-01 0.000000000000000000e+00
Cu 3.806259300131693557e+00 8.742826396083765161e-02 0.000000000000000000e+00
Cu 3.795681367804165429e+00 1.802603118786551273e-01 0.000000000000000000e+00
Cu 3.784625729640958891e+00 2.704886688051063026e-01 0.000000000000000000e+00
Cu 3.772569924061714985e+00 3.589630273921025627e-01 0.000000000000000000e+00
Cu 3.759487963214312334e+00 4.467337640214222860e-01 0.000000000000000000e+00
Cu 3.745867449563637486e+00 5.342280958191882867e-01 0.000000000000000000e+00
Cu 3.732239239930394525e+00 6.214215622358572055e-01 0.000000000000000000e+00
Cu 3.719180012367989452e+00 7.084588057346482559e-01 0.000000000000000000e+00
Cu 3.707719015065348955e+00 7.958283326100379362e-01 0.000000000000000000e+00
Cu 3.699295819726052592e+00 8.838391712001694156e-01 0.000000000000000000e+00
Cu 3.934239786650526316e+00 1.006645218362978572e-01 0.000000000000000000e+00
Cu 3.928675918363232711e+00 1.915060986584201375e-01 0.000000000000000000e+00
Cu 3.921905219977305013e+00 2.801695689216827101e-01 0.000000000000000000e+00
Cu 3.912355113869628642e+00 3.680192583675434004e-01 0.000000000000000000e+00
Cu 3.900523622826741033e+00 4.557986455489848043e-01 0.000000000000000000e+00
Cu 3.887726936601826111e+00 5.433143873660865042e-01 0.000000000000000000e+00
Cu 3.874669856346655283e+00 6.303866941186463402e-01 0.000000000000000000e+00
Cu 3.861379967477241770e+00 7.166345983020044885e-01 0.000000000000000000e+00
Cu 3.848643838868218481e+00 8.027274983191382551e-01 0.000000000000000000e+00
Cu 3.838722127226498415e+00 8.899094593282524945e-01 0.000000000000000000e+00
Cu 4.066943532269184480e+00 1.081857517752462527e-01 0.000000000000000000e+00
Cu 4.068324509288657076e+00 1.976297143919358013e-01 0.000000000000000000e+00
Cu 4.065514762526174053e+00 2.856236600751171917e-01 0.000000000000000000e+00
Cu 4.056672763306075957e+00 3.746690691371515891e-01 0.000000000000000000e+00
Cu 4.045568874834507334e+00 4.634778437792090866e-01 0.000000000000000000e+00
Cu 4.033260838785941438e+00 5.517689575349531417e-01 0.000000000000000000e+00
Cu 4.020455280320625491e+00 6.394695608470014614e-01 0.000000000000000000e+00
Cu 4.007644521940888716e+00 7.265464483095367410e-01 0.000000000000000000e+00
Cu 3.992509294123507413e+00 8.116439874533817322e-01 0.000000000000000000e+00
Cu 3.978115720921760801e+00 8.982540380109413913e-01 0.000000000000000000e+00
Cu 4.198414750213889768e+00 1.010887706727365276e-01 0.000000000000000000e+00
Cu 4.217260292996627413e+00 1.951638370800527489e-01 0.000000000000000000e+00
Cu 4.213202338256001767e+00 2.887561835037719127e-01 0.000000000000000000e+00
Cu 4.205138532679685959e+00 3.806151784209754751e-01 0.000000000000000000e+00
Cu 4.194225930891778198e+00 4.709261712789464260e-01 0.000000000000000000e+00
Cu 4.182148294783519127e+00 5.601681657790854585e-01 0.000000000000000000e+00
Cu 4.169596002757494979e+00 6.487660585355161658e-01 0.000000000000000000e+00
Cu 4.156162763630064205e+00 7.373645614550141669e-01 0.000000000000000000e+00
Cu 4.142309999715338087e+00 8.271642415817798133e-01 0.000000000000000000e+00
Cu 4.110817741910459233e+00 9.164523295066605568e-01 0.000000000000000000e+00
