200

Cu 0.000000000000000000e+00 -2.904893177583468735e-03 0.000000000000000000e+00
Cu 0.000000000000000000e+00 9.951508545714468634e-02 0.000000000000000000e+00
Cu 0.000000000000000000e+00 2.018912304328637497e-01 0.000000000000000000e+00
Cu 0.000000000000000000e+00 3.045194333520410135e-01 0.000000000000000000e+00
Cu 0.000000000000000000e+00 4.075525770912709067e-01 0.000000000000000000e+00
Cu 0.000000000000000000e+00 5.110614755558806621e-01 0.000000000000000000e+00
Cu 0.000000000000000000e+00 6.150964459181164079e-01 0.000000000000000000e+00
Cu 0.000000000000000000e+00 7.197044360559887721e-01 0.000000000000000000e+00
Cu 0.000000000000000000e+00 8.249171319199126717e-01 0.000000000000000000e+00
Cu 0.000000000000000000e+00 9.307130392547805497e-01 0.000000000000000000e+00
Cu 1.140426165922153456e-01 -5.815888504550562749e-04 0.000000000000000000e+00
Cu 1.123812801384489052e-01 1.005980317003215968e-01 0.000000000000000000e+00
Cu 1.112208880517779330e-01 2.026482486482561740e-01 0.000000000000000000e+00
Cu 1.100650175913636397e-01 3.052117972742053320e-01 0.000000000000000000e+00
Cu 1.088871506393673527e-01 4.082532614805243210e-01 0.000000000000000000e+00
Cu 1.076751711336436795e-01 5.117963595885942629e-01 0.000000000000000000e+00
Cu 1.064158576847767657e-01 6.158704381282712470e-01 0.000000000000000000e+00
Cu 1.050883760766666980e-01 7.205214460416650146e-01 0.000000000000000000e+00
Cu 1.036588341227253351e-01 8.258522575252492670e-01 0.000000000000000000e+00
Cu 1.018882627883178210e-01 9.321597001213639544e-01 0.000000000000000000e+00
Cu 2.277728231349975818e-01 2.013055620961508915e-03 0.000000000000000000e+00
Cu 2.250381300682929575e-01 1.032174534099446761e-01 0.000000000000000000e+00
Cu 2.224752355814315352e-01 2.050217015567940282e-01 0.000000000000000000e+00
Cu 2.200599953185759794e-01 3.075126465607175841e-01 0.000000000000000000e+00
Cu 2.176557657261870837e-01 4.105935130449477888e-01 0.000000000000000000e+00
Cu 2.152200532020797086e-01 5.142280586450659330e-01 0.000000000000000000e+00
Cu 2.127124548582270680e-01 6.184104234550159562e-01 0.000000000000000000e+00
Cu 2.100679003693976810e-01 7.231709349374912943e-01 0.000000000000000000e+00
Cu 2.071604989274221376e-01 8.286130445010430057e-01 0.000000000000000000e+00
Cu 2.039091046337754842e-01 9.348248778485311883e-01 0.000000000000000000e+00
Cu 3.412208415250087556e-01 5.668994903409491429e-03 0.000000000000000000e+00
Cu 3.373855281421548336e-01 1.069695706691233955e-01 0.000000000000000000e+00
Cu 3.335801650434007670e-01 2.088382058745720804e-01 0.000000000000000000e+00
Cu 3.298511506159408913e-01 3.113515637959323734e-01 0.000000000000000000e+00
Cu 3.261776702351357193e-01 4.145169284402680510e-01 0.000000000000000000e+00
Cu 3.225086158565468319e-01 5.182869697420813271e-01 0.000000000000000000e+00
Cu 3.187872805651023600e-01 6.226240783501802989e-01 0.000000000000000000e+00
Cu 3.149099444373689161e-01 7.275102805851466625e-01 0.000000000000000000e+00
Cu 3.107411520842396913e-01 8.329523174343890224e-01 0.000000000000000000e+00
Cu 3.061461172068555281e-01 9.390254230223304965e-01 0.000000000000000000e+00
Cu 4.543262786868220160e-01 1.049785501964429525e-02 0.000000000000000000e+00
Cu 4.493201356221798171e-01 1.119291692918204378e-01 0.000000000000000000e+00
Cu 4.442759337402230613e-01 2.139510431419178182e-01 0.000000000000000000e+00
Cu 4.392639171504261197e-01 3.166158807090637128e-01 0.000000000000000000e+00
Cu 4.343165724076494261e-01 4.199262539811621786e-01 0.000000000000000000e+00
Cu 4.294300967311776573e-01 5.238498629945380625e-01 0.000000000000000000e+00
Cu 4.245667719947263108e-01 6.283363910052344181e-01 0.000000000000000000e+00
Cu 4.196305114623703481e-01 7.333227683231212657e-01 0.000000000000000000e+00
Cu 4.144356731458391785e-01 8.387464328158410476e-01 0.000000000000000000e+00
Cu 4.087372683852400490e-01 9.446233807463539911e-01 0.000000000000000000e+00
Cu 5.670262179601158747e-01 1.656331024266608984e-02 0.000000000000000000e+00
Cu 5.607600012969192749e-01 1.181272261310000876e-01 0.000000000000000000e+00
Cu 5.544180678220860248e-01 2.203316507474396002e-01 0.000000000000000000e+00
Cu 5.481222108048702246e-01 3.232057629185309811e-01 0.000000000000000000e+00
Cu 5.419445514475881298e-01 4.267085536782115884e-01 0.000000000000000000e+00
Cu 5.359109552244448738e-01 5.307642149295630496e-01 0.000000000000000000e+00
Cu 5.300206179176024657e-01 6.353187306137956236e-01 0.000000000000000000e+00
Cu 5.242123384153292154e-01 7.403257998399690454e-01 0.000000000000000000e+00
Cu 5.182854598542462332e-01 8.457091560121031693e-01 0.000000000000000000e+00
Cu 5.118626024114882878e-01 9.513510299067760023e-01 0.000000000000000000e+00
Cu 6.792845163094538563e-01 2.395314098508302333e-02 0.000000000000000000e+00
Cu 6.716365543995584941e-01 1.256180478438087278e-01 0.000000000000000000e+00
Cu 6.638937096801285076e-01 2.279724189116328625e-01 0.000000000000000000e+00
Cu 6.562846246214014689e-01 3.310531304122795171e-01 0.000000000000000000e+00
Cu 6.489469351925228890e-01 4.347491221974037479e-01 0.000000000000000000e+00
Cu 6.419355342251018559e-01 5.388899297619241802e-01 0.000000000000000000e+00
Cu 6.352094836429525992e-01 6.433289254649634525e-01 0.000000000000000000e+00
Cu 6.287037993293582705e-01 7.481365695826788231e-01 0.000000000000000000e+00
Cu 6.223078449425404335e-01 8.533448854784523308e-01 0.000000000000000000e+00
Cu 6.157206529575142140e-01 9.587626304473135797e-01 0.000000000000000000e+00
Cu 7.910634589128180405e-01 3.281271248840259003e-02 0.000000000000000000e+00
Cu 7.819110608409167718e-01 1.345307738830913702e-01 0.000000000000000000e+00
Cu 7.726331829913594129e-01 2.369206317439744858e-01 0.000000000000000000e+00
Cu 7.636197233875869905e-01 3.400911938620110875e-01 0.000000000000000000e+00
Cu 7.552256738547498127e-01 4.439316311842496088e-01 0.000000000000000000e+00
Cu 7.475237328719139818e-01 5.480304994405095220e-01 0.000000000000000000e+00
Cu 7.403768011750367917e-01 6.521842091573102351e-01 0.000000000000000000e+00
Cu 7.333075909733405284e-01 7.563637446022872801e-01 0.000000000000000000e+00
Cu 7.265639697461867552e-01 8.610640911642648554e-01 0.000000000000000000e+00
Cu 7.205542031352779597e-01 9.657747625298326311e-01 0.000000000000000000e+00
Cu 9.022711436461722245e-01 4.328629671286031433e-02 0.000000000000000000e+00
Cu 8.915321200280768021e-01 1.450764246904862886e-01 0.000000000000000000e+00
Cu 8.806553520649234024e-01 2.473913994381255477e-01 0.000000000000000000e+00
Cu 8.700710537806135569e-01 3.503289705579535895e-01 0.000000000000000000e+00
Cu 8.606258874927809055e-01 4.540310223947012225e-01 0.000000000000000000e+00
Cu 8.529117064072222476e-01 5.579067573993197193e-01 0.000000000000000000e+00
Cu 8.457305701437656253e-01 6.613205460402601377e-01 0.000000000000000000e+00
Cu 8.382579989245805274e-01 7.654354349058268836e-01 0.000000000000000000e+00
Cu 1.870718567090369877e+00 7.293783088754520749e-01 0.000000000000000000e+00
Cu 1.855520513752564549e+00 8.331972691094730044e-01 0.000000000000000000e+00
Cu 1.012771101771813065e+00 5.553378030748527122e-02 0.000000000000000000e+00
Cu 1.000307396079625377e+00 1.573922204500669830e-01 0.000000000000000000e+00
Cu 9.879301717003173833e-01 2.598277639822038632e-01 0.000000000000000000e+00
Cu 9.758497706809542427e-01 3.622578231631971013e-01 0.000000000000000000e+00
Cu 9.651370802403830274e-01 4.648281647870712852e-01 0.000000000000000000e+00
Cu 9.588699283099718640e-01 5.670348907535052163e-01 0.000000000000000000e+00
Cu 9.513606280865162246e-01 6.706925759881683380e-01 0.000000000000000000e+00
Cu 1.995847421363945884e+00 6.422509730857020038e-01 0.000000000000000000e+00
Cu 1.978895107281728905e+00 7.447439962397058855e-01 0.000000000000000000e+00
Cu 1.965486014136427206e+00 8.460215692170204305e-01 0.000000000000000000e+00
Cu 1.122328432845205004e+00 6.963932908721878756e-02 0.000000000000000000e+00
Cu 1.108049278845387287e+00 1.717257144598273721e-01 0.000000000000000000e+00
Cu 1.093860865637559021e+00 2.741688645035305072e-01 0.000000000000000000e+00
Cu 1.080779512338459813e+00 3.774708456566666093e-01 0.000000000000000000e+00
Cu 2.163827665415042567e+00 3.510904799492827189e-01 0.000000000000000000e+00
Cu 2.137348455493025767e+00 4.524278616665549646e-01 0.000000000000000000e+00
Cu 2.123687577790045022e+00 5.560809630497235423e-01 0.000000000000000000e+00
Cu 2.105666942518915619e+00 6.574875124333813270e-01 0.000000000000000000e+00
Cu 2.091654183748150153e+00 7.577280733283459080e-01 0.000000000000000000e+00
Cu 2.080542942891587366e+00 8.569309109566858318e-01 0.000000000000000000e+00
Cu 1.230753514311072383e+00 8.592834661228650195e-02 0.000000000000000000e+00
Cu 1.214229104920077962e+00 1.880350324168854059e-01 0.000000000000000000e+00
Cu 1.198526192944356694e+00 2.912118920736129768e-01 0.000000000000000000e+00
Cu 2.294109173957856296e+00 2.707654504355383462e-01 0.000000000000000000e+00
Cu 2.270408761258798869e+00 3.721622820428498457e-01 0.000000000000000000e+00
Cu 2.254000942618785253e+00 4.721450949296213118e-01 0.000000000000000000e+00
Cu 2.234553268037284823e+00 5.705309581824716814e-01 0.000000000000000000e+00
Cu 2.220648596701796151e+00 6.700864682603060452e-01 0.000000000000000000e+00
Cu 2.208881707041772557e+00 7.681443838813843961e-01 0.000000000000000000e+00
Cu 2.199952675319950757e+00 8.653814936531670776e-01 0.000000000000000000e+00
Cu 1.337567272690951770e+00 1.043265856330179431e-01 0.000000000000000000e+00
Cu 1.318867241226929554e+00 2.070910979491607795e-01 0.000000000000000000e+00
Cu 2.427759265882773132e+00 1.924827863480090551e-01 0.000000000000000000e+00
Cu 2.403485701130324337e+00 2.920464876102271123e-01 0.000000000000000000e+00
Cu 2.384299421363705651e+00 3.900236131434430820e-01 0.000000000000000000e+00
Cu 2.367746915320366075e+00 4.875105083477809242e-01 0.000000000000000000e+00
Cu 2.352804364499126777e+00 5.844007612807354812e-01 0.000000000000000000e+00
Cu 2.340140263205459981e+00 6.802761451743675192e-01 0.000000000000000000e+00
Cu 2.330382777833047037e+00 7.761873862617195696e-01 0.000000000000000000e+00
Cu 2.323141574805116072e+00 8.715788884365504030e-01 0.000000000000000000e+00
Cu 1.442596625300399449e+00 1.261814085810433472e-01 0.000000000000000000e+00
Cu 2.561896426640200453e+00 1.161111521645186995e-01 0.000000000000000000e+00
Cu 2.538594475753132240e+00 2.146136649926300988e-01 0.000000000000000000e+00
Cu 2.519419542362430597e+00 3.109571782764022907e-01 0.000000000000000000e+00
Cu 2.502890143518696320e+00 4.059776486502888471e-01 0.000000000000000000e+00
Cu 2.488304589869930528e+00 5.004999769441507151e-01 0.000000000000000000e+00
Cu 2.475443008749358409e+00 5.946555906644890310e-01 0.000000000000000000e+00
Cu 2.464452227949209373e+00 6.885109090706635904e-01 0.000000000000000000e+00
Cu 2.455730226266021443e+00 7.822421344387128217e-01 0.000000000000000000e+00
Cu 2.449703671655695469e+00 8.759359910706546737e-01 0.000000000000000000e+00
Cu 2.693351931107527797e+00 3.957740095180067863e-02 0.000000000000000000e+00
Cu 2.673780538302253706e+00 1.378404514284446158e-01 0.000000000000000000e+00
Cu 2.656411179041758608e+00 2.330877361073405152e-01 0.000000000000000000e+00
Cu 2.641039225109984567e+00 3.265729151015678844e-01 0.000000000000000000e+00
Cu 2.627116309923904325e+00 4.190738414831943759e-01 0.000000000000000000e+00
Cu 2.614328916609812925e+00 5.110683290440716231e-01 0.000000000000000000e+00
Cu 2.602746623478757737e+00 6.028960557486269245e-01 0.000000000000000000e+00
Cu 2.592680790821567882e+00 6.947556244183087371e-01 0.000000000000000000e+00
Cu 2.584645107749145687e+00 7.867737483834530421e-01 0.000000000000000000e+00
Cu 2.579243241950829546e+00 8.789434860221572166e-01 0.000000000000000000e+00
Cu 2.805834131614754590e+00 5.767360996714317872e-02 0.000000000000000000e+00
Cu 2.792857762262618504e+00 1.539468549092710137e-01 0.000000000000000000e+00
Cu 2.780244565813542845e+00 2.472814636372601405e-01 0.000000000000000000e+00
Cu 2.768200110705972161e+00 3.387952140672394474e-01 0.000000000000000000e+00
Cu 2.756522593594883830e+00 4.293890663610324121e-01 0.000000000000000000e+00
Cu 2.745165961719262526e+00 5.195789376809818449e-01 0.000000000000000000e+00
Cu 2.734366828854950082e+00 6.096274542657865725e-01 0.000000000000000000e+00
Cu 2.724630112695884065e+00 6.997806947926936694e-01 0.000000000000000000e+00
Cu 2.716683119173507244e+00 7.902805020601574304e-01 0.000000000000000000e+00
Cu 2.711390957704828519e+00 8.811767291202927677e-01 0.000000000000000000e+00
Cu 2.926172445512143394e+00 7.181005565684854541e-02 0.000000000000000000e+00
Cu 2.917945658849462109e+00 1.658852886111545633e-01 0.000000000000000000e+00
Cu 2.909559013128463878e+00 2.576396334134898325e-01 0.000000000000000000e+00
Cu 2.900473301747725774e+00 3.478004110556386919e-01 0.000000000000000000e+00
Cu 2.890595396830207164e+00 4.373247417967576767e-01 0.000000000000000000e+00
Cu 2.880297555695174427e+00 5.265908722314968093e-01 0.000000000000000000e+00
Cu 2.869985594272986162e+00 6.155613389348127962e-01 0.000000000000000000e+00
Cu 2.860109935110762169e+00 7.043733450347891001e-01 0.000000000000000000e+00
Cu 2.851574950173955347e+00 7.935191755527502000e-01 0.000000000000000000e+00
Cu 2.845686979302997077e+00 8.833457907012931543e-01 0.000000000000000000e+00
Cu 3.052572058508370656e+00 8.221776109521106157e-02 0.000000000000000000e+00
Cu 3.048834221900235786e+00 1.743630657147388352e-01 0.000000000000000000e+00
Cu 3.044335010151884457e+00 2.645262417737054284e-01 0.000000000000000000e+00
Cu 3.037513033831269027e+00 3.540094315703255501e-01 0.000000000000000000e+00
Cu 3.028754760083254727e+00 4.434915545379454205e-01 0.000000000000000000e+00
Cu 3.019178741429496160e+00 5.327513456555171834e-01 0.000000000000000000e+00
Cu 3.009327057164180808e+00 6.215807437379577971e-01 0.000000000000000000e+00
Cu 2.999119378046284368e+00 7.096206598438891122e-01 0.000000000000000000e+00
Cu 2.989147104587369430e+00 7.974936785911717063e-01 0.000000000000000000e+00
Cu 2.981491051221324184e+00 8.864707880919371341e-01 0.000000000000000000e+00
Cu 3.182987429267909896e+00 8.757286771895049504e-02 0.000000000000000000e+00
Cu 3.185714246088291901e+00 1.783291219041047981e-01 0.000000000000000000e+00
Cu 3.184776906319858991e+00 2.677685733565163817e-01 0.000000000000000000e+00
Cu 3.178604159150800523e+00 3.583133313454641145e-01 0.000000000000000000e+00
Cu 3.170498984483088645e+00 4.487203647162893994e-01 0.000000000000000000e+00
Cu 3.161367950121902748e+00 5.387027173848639716e-01 0.000000000000000000e+00
Cu 3.151755584657398135e+00 6.281653137731572079e-01 0.000000000000000000e+00
Cu 3.141932164468887567e+00 7.170080022223052074e-01 0.000000000000000000e+00
Cu 3.129657049927014434e+00 8.040169233183297459e-01 0.000000000000000000e+00
Cu 3.117367169808847649e+00 8.923654581677805675e-01 0.000000000000000000e+00
Cu 3.311997067190260324e+00 7.944262497595809547e-02 0.000000000000000000e+00
Cu 3.330726573555212511e+00 1.744880342064558387e-01 0.000000000000000000e+00
Cu 3.328834051860838805e+00 2.691437605809395839e-01 0.000000000000000000e+00
Cu 3.323369157102698868e+00 3.622495974973555244e-01 0.000000000000000000e+00
Cu 3.315476422831964864e+00 4.540317338131418801e-01 0.000000000000000000e+00
Cu 3.306574159223673703e+00 5.449156494018618790e-01 0.000000000000000000e+00
Cu 3.297188184984273907e+00 6.352876518338452794e-01 0.000000000000000000e+00
Cu 3.286864719952037550e+00 7.257481144776835036e-01 0.000000000000000000e+00
Cu 3.275655581547312956e+00 8.172871180910949995e-01 0.000000000000000000e+00
Cu 3.247561150852725564e+00 9.086375665017268899e-01 0.000000000000000000e+00
