200

Cu 0.000000000000000000e+00 5.335356398808400319e-02 0.000000000000000000e+00
Cu 0.000000000000000000e+00 1.483382721527218839e-01 0.000000000000000000e+00
Cu 0.000000000000000000e+00 2.418020845549976594e-01 0.000000000000000000e+00
Cu 0.000000000000000000e+00 3.345814476272945259e-01 0.000000000000000000e+00
Cu 0.000000000000000000e+00 4.271216213933394235e-01 0.000000000000000000e+00
Cu 0.000000000000000000e+00 5.196520957532649865e-01 0.000000000000000000e+00
Cu 0.000000000000000000e+00 6.123599151066834168e-01 0.000000000000000000e+00
Cu 0.000000000000000000e+00 7.054514313049498053e-01 0.000000000000000000e+00
Cu 0.000000000000000000e+00 7.993247384126404009e-01 0.000000000000000000e+00
Cu 0.000000000000000000e+00 8.947388403392323442e-01 0.000000000000000000e+00
Cu 1.342419355943010040e-01 5.888200811588369110e-02 0.000000000000000000e+00
Cu 1.328450604801915957e-01 1.502500633071543745e-01 0.000000000000000000e+00
Cu 1.328102340761496691e-01 2.426028950640148896e-01 0.000000000000000000e+00
Cu 1.327505995618426526e-01 3.349656870813249032e-01 0.000000000000000000e+00
Cu 1.326429430447293722e-01 4.272544054935226154e-01 0.000000000000000000e+00
Cu 1.324711405911116469e-01 5.195757685833515271e-01 0.000000000000000000e+00
Cu 1.322495142633877407e-01 6.120418836043017841e-01 0.000000000000000000e+00
Cu 1.320167149588137023e-01 7.047379610799400229e-01 0.000000000000000000e+00
Cu 1.318110095523120362e-01 7.975517507778546733e-01 0.000000000000000000e+00
Cu 1.329865023544059832e-01 8.894993726541944312e-01 0.000000000000000000e+00
Cu 2.678348979033234323e-01 6.147385022803710658e-02 0.000000000000000000e+00
Cu 2.666915482078890398e-01 1.525721491585521339e-01 0.000000000000000000e+00
Cu 2.660754572035914367e-01 2.439867453907698380e-01 0.000000000000000000e+00
Cu 2.658266976019399985e-01 3.357550070341614457e-01 0.000000000000000000e+00
Cu 2.655507870233520529e-01 4.276226355774888632e-01 0.000000000000000000e+00
Cu 2.651976841997876200e-01 5.195616241549240177e-01 0.000000000000000000e+00
Cu 2.648022585037804189e-01 6.116030204491825772e-01 0.000000000000000000e+00
Cu 2.644599803735516730e-01 7.037017264784927173e-01 0.000000000000000000e+00
Cu 2.645662102458889997e-01 7.956011864235474906e-01 0.000000000000000000e+00
Cu 2.652872944875973582e-01 8.873226652535585179e-01 0.000000000000000000e+00
Cu 4.013281756685214696e-01 6.326257707617470583e-02 0.000000000000000000e+00
Cu 4.004146474798794264e-01 1.543137354285002705e-01 0.000000000000000000e+00
Cu 3.997402856117390768e-01 2.454717921618478904e-01 0.000000000000000000e+00
Cu 3.992855962336967490e-01 3.367973823458325633e-01 0.000000000000000000e+00
Cu 3.988550738675624707e-01 4.282169232801185665e-01 0.000000000000000000e+00
Cu 3.983089004747430995e-01 5.196705312442113645e-01 0.000000000000000000e+00
Cu 3.977223830732822818e-01 6.112052167847662476e-01 0.000000000000000000e+00
Cu 3.972820844182637923e-01 7.028010587482215188e-01 0.000000000000000000e+00
Cu 3.971458447477682618e-01 7.944359741976340095e-01 0.000000000000000000e+00
Cu 3.973761202826008310e-01 8.861632902017962943e-01 0.000000000000000000e+00
Cu 5.348196388569701476e-01 6.466072108404502528e-02 0.000000000000000000e+00
Cu 5.340906190791474550e-01 1.556905131645493212e-01 0.000000000000000000e+00
Cu 5.335065038988401342e-01 2.467702021605411300e-01 0.000000000000000000e+00
Cu 5.330432824721562657e-01 3.379101124379875198e-01 0.000000000000000000e+00
Cu 5.326096563221021096e-01 4.290543607660061709e-01 0.000000000000000000e+00
Cu 5.319112139121590088e-01 5.200290259684574590e-01 0.000000000000000000e+00
Cu 5.309995443646063906e-01 6.110034089753406672e-01 0.000000000000000000e+00
Cu 5.301949338191480621e-01 7.022783776591057237e-01 0.000000000000000000e+00
Cu 5.295901787927088655e-01 7.938682271106420885e-01 0.000000000000000000e+00
Cu 5.292411670515289046e-01 8.857018339772082527e-01 0.000000000000000000e+00
Cu 6.683510155602029323e-01 6.578643510417311879e-02 0.000000000000000000e+00
Cu 6.677830261935038259e-01 1.567909474174752904e-01 0.000000000000000000e+00
Cu 6.673234468888125104e-01 2.478423900111735301e-01 0.000000000000000000e+00
Cu 6.669723705779808665e-01 3.389430309251461604e-01 0.000000000000000000e+00
Cu 6.666274455616068018e-01 4.300271320807451669e-01 0.000000000000000000e+00
Cu 6.662309883960836343e-01 5.209491384933793157e-01 0.000000000000000000e+00
Cu 6.647536933915215718e-01 6.111663610754278775e-01 0.000000000000000000e+00
Cu 6.630568842633565163e-01 7.019617829779403184e-01 0.000000000000000000e+00
Cu 6.618271489571122546e-01 7.938997869840687116e-01 0.000000000000000000e+00
Cu 6.607640689275326995e-01 8.861114705276510461e-01 0.000000000000000000e+00
Cu 8.019620607410411495e-01 6.667687791836005018e-02 0.000000000000000000e+00
Cu 8.015357907807578730e-01 1.576374973251396250e-01 0.000000000000000000e+00
Cu 8.012020035019962183e-01 2.486608861327585240e-01 0.000000000000000000e+00
Cu 8.009591863926270872e-01 3.397636574480164540e-01 0.000000000000000000e+00
Cu 8.008327871911349316e-01 4.309434236572434740e-01 0.000000000000000000e+00
Cu 8.005338177019969415e-01 5.220921946311546380e-01 0.000000000000000000e+00
Cu 8.005081847199667644e-01 6.130257539762183905e-01 0.000000000000000000e+00
Cu 7.956629864495056159e-01 7.012478946767863874e-01 0.000000000000000000e+00
Cu 7.928026830996171004e-01 7.942296460324440588e-01 0.000000000000000000e+00
Cu 7.922079607680974078e-01 8.881211993751034761e-01 0.000000000000000000e+00
Cu 9.356994806778982099e-01 6.734963490173306866e-02 0.000000000000000000e+00
Cu 9.353994017414251072e-01 1.582381975251954120e-01 0.000000000000000000e+00
Cu 9.351654552504006235e-01 2.491995599190888477e-01 0.000000000000000000e+00
Cu 9.350339715629738535e-01 3.402685036257917517e-01 0.000000000000000000e+00
Cu 9.349666040282965662e-01 4.314876653677383600e-01 0.000000000000000000e+00
Cu 9.351677100001352105e-01 5.229375828138007609e-01 0.000000000000000000e+00
Cu 9.345709932049283131e-01 6.146860642513706230e-01 0.000000000000000000e+00
Cu 9.371742264919237231e-01 7.072269536813996504e-01 0.000000000000000000e+00
Cu 9.126879936733547360e-01 7.911539393051651992e-01 0.000000000000000000e+00
Cu 9.292097886390149331e-01 8.863509919340109011e-01 0.000000000000000000e+00
Cu 1.069617626333224436e+00 6.782595893433029932e-02 0.000000000000000000e+00
Cu 1.069425803931391972e+00 1.586097144474608034e-01 0.000000000000000000e+00
Cu 1.069284982480026569e+00 2.494579063431646149e-01 0.000000000000000000e+00
Cu 1.069217413785839454e+00 3.403995096277493970e-01 0.000000000000000000e+00
Cu 1.069305915937452500e+00 4.314778218511463592e-01 0.000000000000000000e+00
Cu 1.069364587763651508e+00 5.227792922768044193e-01 0.000000000000000000e+00
Cu 1.070454909095707396e+00 6.143768838303482749e-01 0.000000000000000000e+00
Cu 1.068515368398686549e+00 7.068024429926420549e-01 0.000000000000000000e+00
Cu 1.093728901619386518e+00 7.903724511565122235e-01 0.000000000000000000e+00
Cu 1.078101668650780054e+00 8.855982318423125665e-01 0.000000000000000000e+00
Cu 1.203766714838234497e+00 6.813793138540755190e-02 0.000000000000000000e+00
Cu 1.203672539628118265e+00 1.587870902541532181e-01 0.000000000000000000e+00
Cu 1.203619703624611681e+00 2.494693504716491983e-01 0.000000000000000000e+00
Cu 1.203664135172073157e+00 3.401813062701024570e-01 0.000000000000000000e+00
Cu 1.203816879980327270e+00 4.309213758549452766e-01 0.000000000000000000e+00
Cu 1.204385716536541473e+00 5.216040265200205805e-01 0.000000000000000000e+00
Cu 1.204894918387548364e+00 6.120822467135459410e-01 0.000000000000000000e+00
Cu 1.210411762018899218e+00 6.998449303929161758e-01 0.000000000000000000e+00
Cu 1.214081172823036070e+00 7.923968256742444094e-01 0.000000000000000000e+00
Cu 1.215617258885154595e+00 8.858968359823805594e-01 0.000000000000000000e+00
Cu 1.338184138794680456e+00 6.832873572991782218e-02 0.000000000000000000e+00
Cu 1.338179033850402488e+00 1.588248495344873057e-01 0.000000000000000000e+00
Cu 1.338239928632606990e+00 2.493033083617190171e-01 0.000000000000000000e+00
Cu 1.338408832068783916e+00 3.397223094642685681e-01 0.000000000000000000e+00
Cu 1.338806702318720898e+00 4.300171242079451339e-01 0.000000000000000000e+00
Cu 1.339481198668718731e+00 5.200964122836401193e-01 0.000000000000000000e+00
Cu 1.341454807073997335e+00 6.094887580884763567e-01 0.000000000000000000e+00
Cu 1.343846632632380800e+00 6.995274145798249243e-01 0.000000000000000000e+00
Cu 1.345952973843340006e+00 7.907907624051609963e-01 0.000000000000000000e+00
Cu 1.347983196017594532e+00 8.823745502867730295e-01 0.000000000000000000e+00
Cu 1.472878759159706119e+00 6.844718649230947805e-02 0.000000000000000000e+00
Cu 1.472965966699952833e+00 1.587902870179555004e-01 0.000000000000000000e+00
Cu 1.473164220975369476e+00 2.490576580430678977e-01 0.000000000000000000e+00
Cu 1.473516903723717020e+00 3.391749967496005547e-01 0.000000000000000000e+00
Cu 1.474076921221473935e+00 4.290937975733988829e-01 0.000000000000000000e+00
Cu 1.475082822686863748e+00 5.187449769540339872e-01 0.000000000000000000e+00
Cu 1.476471870526181673e+00 6.084439906068310755e-01 0.000000000000000000e+00
Cu 1.477963749602499988e+00 6.986034070301706533e-01 0.000000000000000000e+00
Cu 1.479472159747707849e+00 7.892540607309264100e-01 0.000000000000000000e+00
Cu 1.480893700327645224e+00 8.802485032366015316e-01 0.000000000000000000e+00
Cu 1.607823817604421945e+00 6.853365032370074827e-02 0.000000000000000000e+00
Cu 1.608019183970588184e+00 1.587473669976876556e-01 0.000000000000000000e+00
Cu 1.608397893409029500e+00 2.488268670261962190e-01 0.000000000000000000e+00
Cu 1.608940430433958735e+00 3.386925187706634754e-01 0.000000000000000000e+00
Cu 1.609667107758943283e+00 4.283321202615660850e-01 0.000000000000000000e+00
Cu 1.610562903949463553e+00 5.178775315229037224e-01 0.000000000000000000e+00
Cu 1.611542013780364657e+00 6.075712661374995660e-01 0.000000000000000000e+00
Cu 1.612545202516190823e+00 6.975929805090619329e-01 0.000000000000000000e+00
Cu 1.613559154808386964e+00 7.879909921334912193e-01 0.000000000000000000e+00
Cu 1.614533088364656699e+00 8.786881542013942337e-01 0.000000000000000000e+00
Cu 1.742949294528783666e+00 6.859797377505032212e-02 0.000000000000000000e+00
Cu 1.743299666535273795e+00 1.587279132079850164e-01 0.000000000000000000e+00
Cu 1.743917106223274116e+00 2.486664891313919434e-01 0.000000000000000000e+00
Cu 1.744691453768155931e+00 3.383383266232767861e-01 0.000000000000000000e+00
Cu 1.745510636653935910e+00 4.277953540063068605e-01 0.000000000000000000e+00
Cu 1.746270849902386013e+00 5.172025385664474895e-01 0.000000000000000000e+00
Cu 1.746921255781053173e+00 6.067629384948238780e-01 0.000000000000000000e+00
Cu 1.747489341894536086e+00 6.966323572497704619e-01 0.000000000000000000e+00
Cu 1.748048709451375915e+00 7.868667173364033429e-01 0.000000000000000000e+00
Cu 1.748674547915333166e+00 8.773849006532985495e-01 0.000000000000000000e+00
Cu 1.878141798425069009e+00 6.859035114670565536e-02 0.000000000000000000e+00
Cu 1.878745114938503491e+00 1.587007081341396397e-01 0.000000000000000000e+00
Cu 1.879713248272480097e+00 2.485484490047166206e-01 0.000000000000000000e+00
Cu 1.880794600375881087e+00 3.380788810321103122e-01 0.000000000000000000e+00
Cu 1.881747087516462580e+00 4.273859017081110268e-01 0.000000000000000000e+00
Cu 1.882398487206210058e+00 5.166453164008506516e-01 0.000000000000000000e+00
Cu 1.882713204272460361e+00 6.060508528397797745e-01 0.000000000000000000e+00
Cu 1.882799951265223593e+00 6.957673907102381872e-01 0.000000000000000000e+00
Cu 1.882855280870150194e+00 7.858746610008047195e-01 0.000000000000000000e+00
Cu 1.883101134901580709e+00 8.762994667724368636e-01 0.000000000000000000e+00
Cu 2.013236137562212758e+00 6.836939638155506427e-02 0.000000000000000000e+00
Cu 2.014283856135999695e+00 1.585387804301075509e-01 0.000000000000000000e+00
Cu 2.015799847193001870e+00 2.483327141853942932e-01 0.000000000000000000e+00
Cu 2.017330515774505617e+00 3.377599688857218507e-01 0.000000000000000000e+00
Cu 2.018492813132043651e+00 4.270001806963994451e-01 0.000000000000000000e+00
Cu 2.019062454894327896e+00 5.162215508646330608e-01 0.000000000000000000e+00
Cu 2.019010121419006598e+00 6.055429122207270920e-01 0.000000000000000000e+00
Cu 2.018506676481126583e+00 6.951236608369073533e-01 0.000000000000000000e+00
Cu 2.017894420018776280e+00 7.851284249493964973e-01 0.000000000000000000e+00
Cu 2.017598902272585981e+00 8.755469334837387985e-01 0.000000000000000000e+00
Cu 2.147982725838599727e+00 6.765413848762179272e-02 0.000000000000000000e+00
Cu 2.149849006429811027e+00 1.579770993512840116e-01 0.000000000000000000e+00
Cu 2.152252645330289926e+00 2.477166165920976215e-01 0.000000000000000000e+00
Cu 2.154392695719431039e+00 3.371076927464759510e-01 0.000000000000000000e+00
Cu 2.155772748088756963e+00 4.265113408947112106e-01 0.000000000000000000e+00
Cu 2.156285192990484045e+00 5.160026807099440394e-01 0.000000000000000000e+00
Cu 2.155903176905606511e+00 6.054693105943054210e-01 0.000000000000000000e+00
Cu 2.154684691611259861e+00 6.949793239929197286e-01 0.000000000000000000e+00
Cu 2.153089666931544688e+00 7.848811736539027528e-01 0.000000000000000000e+00
Cu 2.151895160064106527e+00 8.753948239564424139e-01 0.000000000000000000e+00
Cu 2.281928742811963229e+00 6.590013780078723959e-02 0.000000000000000000e+00
Cu 2.285441402049557702e+00 1.564924838429998522e-01 0.000000000000000000e+00
Cu 2.289281847593996666e+00 2.461275541594233063e-01 0.000000000000000000e+00
Cu 2.292011611878892907e+00 3.357677333644173978e-01 0.000000000000000000e+00
Cu 2.293451094497408249e+00 4.258299348672976437e-01 0.000000000000000000e+00
Cu 2.293927983037713947e+00 5.160337496493653253e-01 0.000000000000000000e+00
Cu 2.293415837114018085e+00 6.061467924161051402e-01 0.000000000000000000e+00
Cu 2.291537939191533368e+00 6.958824627087623060e-01 0.000000000000000000e+00
Cu 2.288434013558610758e+00 7.856432000982208619e-01 0.000000000000000000e+00
Cu 2.285524940182216636e+00 8.763778872573368961e-01 0.000000000000000000e+00
Cu 2.413985056617663716e+00 6.179826664493073135e-02 0.000000000000000000e+00
Cu 2.421457954154199399e+00 1.527892993440602143e-01 0.000000000000000000e+00
Cu 2.427168014134013507e+00 2.427130651521713089e-01 0.000000000000000000e+00
Cu 2.429850468132932040e+00 3.337162691877628151e-01 0.000000000000000000e+00
Cu 2.431329300853712017e+00 4.249561984709956386e-01 0.000000000000000000e+00
Cu 2.431786844970149630e+00 5.162702514281307664e-01 0.000000000000000000e+00
Cu 2.431199160435652651e+00 6.075632017840482124e-01 0.000000000000000000e+00
Cu 2.429334129850240220e+00 6.986588540541526227e-01 0.000000000000000000e+00
Cu 2.424321590188138309e+00 7.887022824952368838e-01 0.000000000000000000e+00
Cu 2.417396520748049671e+00 8.798058101068347847e-01 0.000000000000000000e+00
Cu 2.540307997710420818e+00 4.887506698977846925e-02 0.000000000000000000e+00
Cu 2.559498857259846272e+00 1.439992589009906621e-01 0.000000000000000000e+00
Cu 2.564695738268718550e+00 2.382826382920375241e-01 0.000000000000000000e+00
Cu 2.567783006915635546e+00 3.314334078555511431e-01 0.000000000000000000e+00
Cu 2.569262056362706215e+00 4.240352547549817719e-01 0.000000000000000000e+00
Cu 2.569710021356715224e+00 5.165200812092316518e-01 0.000000000000000000e+00
Cu 2.569105495145492135e+00 6.091924619039785771e-01 0.000000000000000000e+00
Cu 2.566830995993196307e+00 7.024717343126389846e-01 0.000000000000000000e+00
Cu 2.562338651277359602e+00 7.969052277009892604e-01 0.000000000000000000e+00
Cu 2.543700787059404167e+00 8.921983753057541877e-01 0.000000000000000000e+00
