200

Cu 0.000000000000000000e+00 4.305899638655734385e-02 0.000000000000000000e+00
Cu 0.000000000000000000e+00 1.400243464615481270e-01 0.000000000000000000e+00
Cu 0.000000000000000000e+00 2.357638407417961546e-01 0.000000000000000000e+00
Cu 0.000000000000000000e+00 3.309482328645138582e-01 0.000000000000000000e+00
Cu 0.000000000000000000e+00 4.259420898138861489e-01 0.000000000000000000e+00
Cu 0.000000000000000000e+00 5.209310393417044827e-01 0.000000000000000000e+00
Cu 0.000000000000000000e+00 6.160648718418053615e-01 0.000000000000000000e+00
Cu 0.000000000000000000e+00 7.115103456499571877e-01 0.000000000000000000e+00
Cu 0.000000000000000000e+00 8.075934039325489699e-01 0.000000000000000000e+00
Cu 0.000000000000000000e+00 9.049233702406782598e-01 0.000000000000000000e+00
Cu 1.288092159147573579e-01 4.769838215551499422e-02 0.000000000000000000e+00
Cu 1.275557502063235649e-01 1.416272685278682220e-01 0.000000000000000000e+00
Cu 1.275025239390775167e-01 2.364349110366668894e-01 0.000000000000000000e+00
Cu 1.274462362197061882e-01 3.312716160985641478e-01 0.000000000000000000e+00
Cu 1.273529668835005069e-01 4.260557489128807274e-01 0.000000000000000000e+00
Cu 1.272105097398393836e-01 5.208708064627063372e-01 0.000000000000000000e+00
Cu 1.270298204279515786e-01 6.158041283885550277e-01 0.000000000000000000e+00
Cu 1.268405010149510626e-01 7.109204585831897516e-01 0.000000000000000000e+00
Cu 1.266870059399903548e-01 8.061165409717083730e-01 0.000000000000000000e+00
Cu 1.277368492876181927e-01 9.005439368929025745e-01 0.000000000000000000e+00
Cu 2.570498388461673334e-01 4.988539359171968723e-02 0.000000000000000000e+00
Cu 2.559986168891059677e-01 1.436211631467442518e-01 0.000000000000000000e+00
Cu 2.554234363724233736e-01 2.376240328717753036e-01 0.000000000000000000e+00
Cu 2.551866162624165102e-01 3.319499896589934163e-01 0.000000000000000000e+00
Cu 2.549442617615594875e-01 4.263742494152082951e-01 0.000000000000000000e+00
Cu 2.546501139665880431e-01 5.208655355844687973e-01 0.000000000000000000e+00
Cu 2.543332809386352755e-01 6.154406155334858353e-01 0.000000000000000000e+00
Cu 2.540750608643141950e-01 7.100476666250876701e-01 0.000000000000000000e+00
Cu 2.542125477126936373e-01 8.044597212865038927e-01 0.000000000000000000e+00
Cu 2.548823596473582254e-01 8.987254983042735068e-01 0.000000000000000000e+00
Cu 3.851935512263279238e-01 5.143048482294691748e-02 0.000000000000000000e+00
Cu 3.843412273604401297e-01 1.451324781308400147e-01 0.000000000000000000e+00
Cu 3.837081645084213788e-01 2.389231493182027433e-01 0.000000000000000000e+00
Cu 3.832816382535075284e-01 3.328623674366689711e-01 0.000000000000000000e+00
Cu 3.828968473106107995e-01 4.268926751741057846e-01 0.000000000000000000e+00
Cu 3.824374158268309953e-01 5.209620128815865003e-01 0.000000000000000000e+00
Cu 3.819741542309310622e-01 6.151022900458085196e-01 0.000000000000000000e+00
Cu 3.816597253047666061e-01 7.092788026996124096e-01 0.000000000000000000e+00
Cu 3.816068338852036113e-01 8.034684697972552803e-01 0.000000000000000000e+00
Cu 3.818494768616950696e-01 8.977368243629099132e-01 0.000000000000000000e+00
Cu 5.133431680471268743e-01 5.266364367368353561e-02 0.000000000000000000e+00
Cu 5.126492517864033038e-01 1.463451737506722972e-01 0.000000000000000000e+00
Cu 5.120932437695997486e-01 2.400687299482968939e-01 0.000000000000000000e+00
Cu 5.116585805693200095e-01 3.338453447646886341e-01 0.000000000000000000e+00
Cu 5.112640606714069502e-01 4.276259738553158662e-01 0.000000000000000000e+00
Cu 5.106718579483794374e-01 5.212667505963021197e-01 0.000000000000000000e+00
Cu 5.099376501755659152e-01 6.149201676564755026e-01 0.000000000000000000e+00
Cu 5.093412634276770490e-01 7.088308539860388446e-01 0.000000000000000000e+00
Cu 5.089137026770824690e-01 8.029872680522710526e-01 0.000000000000000000e+00
Cu 5.086566118056279340e-01 8.973313439284519299e-01 0.000000000000000000e+00
Cu 6.415439976152839119e-01 5.368131099310680804e-02 0.000000000000000000e+00
Cu 6.409863876248382830e-01 1.473312007151922898e-01 0.000000000000000000e+00
Cu 6.405378259014261610e-01 2.410228830744031159e-01 0.000000000000000000e+00
Cu 6.401987063256975308e-01 3.347576486786273398e-01 0.000000000000000000e+00
Cu 6.398928009325440813e-01 4.284793142424522250e-01 0.000000000000000000e+00
Cu 6.395403487304219814e-01 5.220509698579721691e-01 0.000000000000000000e+00
Cu 6.383359621952044982e-01 6.150361638193118097e-01 0.000000000000000000e+00
Cu 6.369792879739334390e-01 7.085462011713377084e-01 0.000000000000000000e+00
Cu 6.360802583310544156e-01 8.030183223824907124e-01 0.000000000000000000e+00
Cu 6.352332956203822212e-01 8.976829689749995511e-01 0.000000000000000000e+00
Cu 7.698397316956063774e-01 5.451462187388386726e-02 0.000000000000000000e+00
Cu 7.694001484954355874e-01 1.481106481948421816e-01 0.000000000000000000e+00
Cu 7.690558237530680241e-01 2.417626901720954791e-01 0.000000000000000000e+00
Cu 7.688124614618861985e-01 3.354846256808423077e-01 0.000000000000000000e+00
Cu 7.686837346726123066e-01 4.292719980359812060e-01 0.000000000000000000e+00
Cu 7.684668661376397036e-01 5.230353929137191438e-01 0.000000000000000000e+00
Cu 7.683827423225846331e-01 6.165808839051364343e-01 0.000000000000000000e+00
Cu 7.645093155142009822e-01 7.079012615703090816e-01 0.000000000000000000e+00
Cu 7.620857156595008952e-01 8.032989989425960431e-01 0.000000000000000000e+00
Cu 7.619215166658305227e-01 8.993449518499117001e-01 0.000000000000000000e+00
Cu 8.982801182106506799e-01 5.518129126744607260e-02 0.000000000000000000e+00
Cu 8.979421924636707963e-01 1.486941123040494417e-01 0.000000000000000000e+00
Cu 8.976792965034910976e-01 2.422719310421182493e-01 0.000000000000000000e+00
Cu 8.975220974541755492e-01 3.359431625881497685e-01 0.000000000000000000e+00
Cu 8.974555049382153538e-01 4.297434720781847517e-01 0.000000000000000000e+00
Cu 8.976047725669745736e-01 5.237373163180890634e-01 0.000000000000000000e+00
Cu 8.972486659240564988e-01 6.179849583013017345e-01 0.000000000000000000e+00
Cu 8.990969539399360499e-01 7.128205113275163374e-01 0.000000000000000000e+00
Cu 8.793809166655536247e-01 8.007431036591782236e-01 0.000000000000000000e+00
Cu 8.930993928832465789e-01 8.977848492947576586e-01 0.000000000000000000e+00
Cu 1.026919794935371000e+00 5.570262009521217972e-02 0.000000000000000000e+00
Cu 1.026666870874535231e+00 1.491001373203559577e-01 0.000000000000000000e+00
Cu 1.026475297821008104e+00 2.425561203122640341e-01 0.000000000000000000e+00
Cu 1.026370334024200970e+00 3.360936874249311201e-01 0.000000000000000000e+00
Cu 1.026411015657833659e+00 4.297489333085475205e-01 0.000000000000000000e+00
Cu 1.026492162067778713e+00 5.235910182180760764e-01 0.000000000000000000e+00
Cu 1.027330000342781657e+00 6.176856222246578376e-01 0.000000000000000000e+00
Cu 1.026157441549066851e+00 7.123918835754903256e-01 0.000000000000000000e+00
Cu 1.046644753477170564e+00 7.999889552717095453e-01 0.000000000000000000e+00
Cu 1.033876929950643619e+00 8.970281991820461265e-01 0.000000000000000000e+00
Cu 1.155809189788670421e+00 5.610752618304598593e-02 0.000000000000000000e+00
Cu 1.155630712856804854e+00 1.493607530138264250e-01 0.000000000000000000e+00
Cu 1.155508238794769493e+00 2.426460588150015640e-01 0.000000000000000000e+00
Cu 1.155488013283507920e+00 3.359588616322153332e-01 0.000000000000000000e+00
Cu 1.155594451874124129e+00 4.292949647016880976e-01 0.000000000000000000e+00
Cu 1.156050175296986726e+00 5.225842713445149057e-01 0.000000000000000000e+00
Cu 1.156610418741947255e+00 6.156632610014910467e-01 0.000000000000000000e+00
Cu 1.161166781525645231e+00 7.065157005143902769e-01 0.000000000000000000e+00
Cu 1.164435217537937994e+00 8.014673830487699657e-01 0.000000000000000000e+00
Cu 1.165597808373565858e+00 8.971021502431306693e-01 0.000000000000000000e+00
Cu 1.284985829899049525e+00 5.643194122748327463e-02 0.000000000000000000e+00
Cu 1.284876127557673886e+00 1.495218033445906425e-01 0.000000000000000000e+00
Cu 1.284844626036226067e+00 2.425992523127124267e-01 0.000000000000000000e+00
Cu 1.284931918009922125e+00 3.356246370199180706e-01 0.000000000000000000e+00
Cu 1.285236855770144349e+00 4.285415979248012319e-01 0.000000000000000000e+00
Cu 1.285836312372192092e+00 5.212608068836914743e-01 0.000000000000000000e+00
Cu 1.287528287809806882e+00 6.134101291367477504e-01 0.000000000000000000e+00
Cu 1.289593725123026724e+00 7.061442224004347290e-01 0.000000000000000000e+00
Cu 1.291400377964668333e+00 7.999123875467768485e-01 0.000000000000000000e+00
Cu 1.293273205325645714e+00 8.939088789325282391e-01 0.000000000000000000e+00
Cu 1.414461634579060823e+00 5.671454941359956731e-02 0.000000000000000000e+00
Cu 1.414426237937814967e+00 1.496386307024781259e-01 0.000000000000000000e+00
Cu 1.414512584673723872e+00 2.424962531732942073e-01 0.000000000000000000e+00
Cu 1.414757831980001157e+00 3.352187811801483619e-01 0.000000000000000000e+00
Cu 1.415216484849449730e+00 4.277610671858440017e-01 0.000000000000000000e+00
Cu 1.416080979731459966e+00 5.200743434376138286e-01 0.000000000000000000e+00
Cu 1.417286965551720179e+00 6.124455203664992409e-01 0.000000000000000000e+00
Cu 1.418586395286979940e+00 7.052202423285423016e-01 0.000000000000000000e+00
Cu 1.419948861776120452e+00 7.983978403626156295e-01 0.000000000000000000e+00
Cu 1.421327699404362210e+00 8.918465053467597992e-01 0.000000000000000000e+00
Cu 1.544214556064618327e+00 5.698563016268828885e-02 0.000000000000000000e+00
Cu 1.544273331277310035e+00 1.497633114456780878e-01 0.000000000000000000e+00
Cu 1.544520592788778179e+00 2.424174520346118744e-01 0.000000000000000000e+00
Cu 1.544939291282787730e+00 3.348731206184331621e-01 0.000000000000000000e+00
Cu 1.545543225155082023e+00 4.271230957115053073e-01 0.000000000000000000e+00
Cu 1.546312086304320044e+00 5.192931754591885163e-01 0.000000000000000000e+00
Cu 1.547166799764656764e+00 6.116002395472972530e-01 0.000000000000000000e+00
Cu 1.548069074947558299e+00 7.041932363035617870e-01 0.000000000000000000e+00
Cu 1.549031391651779943e+00 7.971057400672216797e-01 0.000000000000000000e+00
Cu 1.550027701364656396e+00 8.902757778904384356e-01 0.000000000000000000e+00
Cu 1.674181739769811106e+00 5.724764853624540739e-02 0.000000000000000000e+00
Cu 1.674383936359335801e+00 1.499195944370443345e-01 0.000000000000000000e+00
Cu 1.674853090817324919e+00 2.424090584442094298e-01 0.000000000000000000e+00
Cu 1.675486926598807269e+00 3.346456799598681031e-01 0.000000000000000000e+00
Cu 1.676179276188350720e+00 4.266797788951621206e-01 0.000000000000000000e+00
Cu 1.676832631887567926e+00 5.186662442671465811e-01 0.000000000000000000e+00
Cu 1.677405657587004884e+00 6.107912502914315533e-01 0.000000000000000000e+00
Cu 1.677936461533565904e+00 7.031943755896660209e-01 0.000000000000000000e+00
Cu 1.678506359503450396e+00 7.959260485453911738e-01 0.000000000000000000e+00
Cu 1.679195073685131101e+00 8.889165175337843117e-01 0.000000000000000000e+00
Cu 1.804258605505907997e+00 5.744859788508153292e-02 0.000000000000000000e+00
Cu 1.804702976651092694e+00 1.500728885190387996e-01 0.000000000000000000e+00
Cu 1.805504394562557735e+00 2.424403185091892898e-01 0.000000000000000000e+00
Cu 1.806431122313452375e+00 3.345006217843784491e-01 0.000000000000000000e+00
Cu 1.807256661883431592e+00 4.263430250818783240e-01 0.000000000000000000e+00
Cu 1.807820219070862988e+00 5.181346849005475930e-01 0.000000000000000000e+00
Cu 1.808094751466088557e+00 6.100597341758571268e-01 0.000000000000000000e+00
Cu 1.808192584357275701e+00 7.022745483694445845e-01 0.000000000000000000e+00
Cu 1.808305765551173616e+00 7.948559335724745267e-01 0.000000000000000000e+00
Cu 1.808644801146495951e+00 8.877405655863208622e-01 0.000000000000000000e+00
Cu 1.934292983656842990e+00 5.745164994973541578e-02 0.000000000000000000e+00
Cu 1.935167236067281582e+00 1.500984467931965327e-01 0.000000000000000000e+00
Cu 1.936491207317547536e+00 2.423723927334463513e-01 0.000000000000000000e+00
Cu 1.937849155990360561e+00 3.342877119416692300e-01 0.000000000000000000e+00
Cu 1.938882272844925092e+00 4.260169428786165224e-01 0.000000000000000000e+00
Cu 1.939379362517833938e+00 5.177218343575995529e-01 0.000000000000000000e+00
Cu 1.939318226946203261e+00 6.095178139827747144e-01 0.000000000000000000e+00
Cu 1.938869491903649767e+00 7.015595150729012630e-01 0.000000000000000000e+00
Cu 1.938360989670531831e+00 7.940075770284097390e-01 0.000000000000000000e+00
Cu 1.938187382836742412e+00 8.868618552672817845e-01 0.000000000000000000e+00
Cu 2.064057837348956426e+00 5.699015852610989780e-02 0.000000000000000000e+00
Cu 2.065723248329518036e+00 1.497396996693056426e-01 0.000000000000000000e+00
Cu 2.067889358985796733e+00 2.419104450477667922e-01 0.000000000000000000e+00
Cu 2.069824139067236946e+00 3.337427355131773465e-01 0.000000000000000000e+00
Cu 2.071068033824697174e+00 4.255828306484977230e-01 0.000000000000000000e+00
Cu 2.071519025831072280e+00 5.175007608220686395e-01 0.000000000000000000e+00
Cu 2.071156311426312957e+00 6.093922325672429530e-01 0.000000000000000000e+00
Cu 2.070043745434168692e+00 7.013219752002475271e-01 0.000000000000000000e+00
Cu 2.068613274837313831e+00 7.936268433494267915e-01 0.000000000000000000e+00
Cu 2.067579161152198974e+00 8.865359366448479772e-01 0.000000000000000000e+00
Cu 2.193149620270820943e+00 5.555116283798205989e-02 0.000000000000000000e+00
Cu 2.196393218503992717e+00 1.484908970035561382e-01 0.000000000000000000e+00
Cu 2.199895629670288955e+00 2.405070742698801056e-01 0.000000000000000000e+00
Cu 2.202364533161273563e+00 3.325362235217766416e-01 0.000000000000000000e+00
Cu 2.203666187268804588e+00 4.249583137000738642e-01 0.000000000000000000e+00
Cu 2.204088718494862320e+00 5.175165989189375315e-01 0.000000000000000000e+00
Cu 2.203611418388914167e+00 6.099802044283255675e-01 0.000000000000000000e+00
Cu 2.201907376943907924e+00 7.020874994988037798e-01 0.000000000000000000e+00
Cu 2.199079639483056070e+00 7.942077369623545824e-01 0.000000000000000000e+00
Cu 2.196408170992074194e+00 8.872674448634019218e-01 0.000000000000000000e+00
Cu 2.320627669527890458e+00 5.190241812831752899e-02 0.000000000000000000e+00
Cu 2.327583349044358929e+00 1.451117346188042223e-01 0.000000000000000000e+00
Cu 2.332706459636732177e+00 2.373971392178655104e-01 0.000000000000000000e+00
Cu 2.335144467009115488e+00 3.306535092665497944e-01 0.000000000000000000e+00
Cu 2.336460087408744890e+00 4.241527638071873607e-01 0.000000000000000000e+00
Cu 2.336867181557162887e+00 5.177229708266355424e-01 0.000000000000000000e+00
Cu 2.336346838023709793e+00 6.112655532811820391e-01 0.000000000000000000e+00
Cu 2.334646073030542723e+00 7.045982243926499633e-01 0.000000000000000000e+00
Cu 2.330164574689474133e+00 7.969826054818345273e-01 0.000000000000000000e+00
Cu 2.323732878113257794e+00 8.902883903007912103e-01 0.000000000000000000e+00
Cu 2.443435229061432956e+00 4.010505772191642893e-02 0.000000000000000000e+00
Cu 2.460432054721735096e+00 1.371040128182208218e-01 0.000000000000000000e+00
Cu 2.465238835087466995e+00 2.333147833261905169e-01 0.000000000000000000e+00
Cu 2.467979627848846835e+00 3.285508529990499582e-01 0.000000000000000000e+00
Cu 2.469303853867473197e+00 4.233019462510042574e-01 0.000000000000000000e+00
Cu 2.469702826429920783e+00 5.179453060877358128e-01 0.000000000000000000e+00
Cu 2.469160051847437032e+00 6.127543130839859797e-01 0.000000000000000000e+00
Cu 2.467152498920751835e+00 7.080959443491258165e-01 0.000000000000000000e+00
Cu 2.462994803601723959e+00 8.044323831949464765e-01 0.000000000000000000e+00
Cu 2.446527337696021931e+00 9.015735188905829034e-01 0.000000000000000000e+00
