200

Cu 0.000000000000000000e+00 8.874186705353760696e-03 0.000000000000000000e+00
Cu 0.000000000000000000e+00 1.137048630688731882e-01 0.000000000000000000e+00
Cu 0.000000000000000000e+00 2.186022368631101442e-01 0.000000000000000000e+00
Cu 0.000000000000000000e+00 3.236085843718171651e-01 0.000000000000000000e+00
Cu 0.000000000000000000e+00 4.287354895964646806e-01 0.000000000000000000e+00
Cu 0.000000000000000000e+00 5.339786973963851491e-01 0.000000000000000000e+00
Cu 0.000000000000000000e+00 6.393308970395840118e-01 0.000000000000000000e+00
Cu 0.000000000000000000e+00 7.447858023680505868e-01 0.000000000000000000e+00
Cu 0.000000000000000000e+00 8.503331471988814227e-01 0.000000000000000000e+00
Cu 0.000000000000000000e+00 9.559477501659477960e-01 0.000000000000000000e+00
Cu 1.068455824121531117e-01 9.352591212970787216e-03 0.000000000000000000e+00
Cu 1.064237106632283381e-01 1.139477058154158978e-01 0.000000000000000000e+00
Cu 1.061107731777810453e-01 2.187882569359870522e-01 0.000000000000000000e+00
Cu 1.058114643021354356e-01 3.237871319081747634e-01 0.000000000000000000e+00
Cu 1.055201083522896849e-01 4.289200998073482984e-01 0.000000000000000000e+00
Cu 1.052338471387864599e-01 5.341738740110979489e-01 0.000000000000000000e+00
Cu 1.049479724486303694e-01 6.395375300500836246e-01 0.000000000000000000e+00
Cu 1.046541487761395162e-01 7.450071234943023146e-01 0.000000000000000000e+00
Cu 1.043372568788352300e-01 8.506012831443789945e-01 0.000000000000000000e+00
Cu 1.038985303056390724e-01 9.564146817729453076e-01 0.000000000000000000e+00
Cu 2.136346306877839885e-01 9.973956922716211565e-03 0.000000000000000000e+00
Cu 2.129043476673815882e-01 1.145822157725294166e-01 0.000000000000000000e+00
Cu 2.122299970852888351e-01 2.193787882982883852e-01 0.000000000000000000e+00
Cu 2.116103431420437442e-01 3.243675436713451266e-01 0.000000000000000000e+00
Cu 2.110192440244469114e-01 4.295123710419109786e-01 0.000000000000000000e+00
Cu 2.104464796594157083e-01 5.347883731441434030e-01 0.000000000000000000e+00
Cu 2.098788442787941910e-01 6.401785358991538555e-01 0.000000000000000000e+00
Cu 2.092923455632837160e-01 7.456791059687359891e-01 0.000000000000000000e+00
Cu 2.086383258846900013e-01 8.513127523324718338e-01 0.000000000000000000e+00
Cu 2.078846585873325714e-01 9.570899566141763959e-01 0.000000000000000000e+00
Cu 3.203704683916884233e-01 1.089667236173894570e-02 0.000000000000000000e+00
Cu 3.193291742061780680e-01 1.155252851600943320e-01 0.000000000000000000e+00
Cu 3.183265502032223138e-01 2.203369747456613847e-01 0.000000000000000000e+00
Cu 3.173770733586831483e-01 3.253317665619304688e-01 0.000000000000000000e+00
Cu 3.164795789870910037e-01 4.304948295132625113e-01 0.000000000000000000e+00
Cu 3.156222196331867069e-01 5.357992886824900491e-01 0.000000000000000000e+00
Cu 3.147857326361900299e-01 6.412217313953132436e-01 0.000000000000000000e+00
Cu 3.139332397885354342e-01 7.467470628967258772e-01 0.000000000000000000e+00
Cu 3.130180079405065485e-01 8.523665882864356336e-01 0.000000000000000000e+00
Cu 3.119956233810746160e-01 9.580888418805386664e-01 0.000000000000000000e+00
Cu 4.270456025759287177e-01 1.213228315615103199e-02 0.000000000000000000e+00
Cu 4.256829981940343788e-01 1.167871107970882560e-01 0.000000000000000000e+00
Cu 4.243549337270042798e-01 2.216275747750697800e-01 0.000000000000000000e+00
Cu 4.230845992653454180e-01 3.266500392602725289e-01 0.000000000000000000e+00
Cu 4.218837478614224090e-01 4.318378361415198263e-01 0.000000000000000000e+00
Cu 4.207516417983255819e-01 5.371667421813403065e-01 0.000000000000000000e+00
Cu 4.196726703132462877e-01 6.426090502479013811e-01 0.000000000000000000e+00
Cu 4.186109517055590090e-01 7.481360793255594777e-01 0.000000000000000000e+00
Cu 4.175064212749354242e-01 8.537228565094344690e-01 0.000000000000000000e+00
Cu 4.162838311511922740e-01 9.593665010115293157e-01 0.000000000000000000e+00
Cu 5.336553493268686443e-01 1.368727713767347795e-02 0.000000000000000000e+00
Cu 5.319566371793127413e-01 1.183663021438717267e-01 0.000000000000000000e+00
Cu 5.302940527969742801e-01 2.232380010732196718e-01 0.000000000000000000e+00
Cu 5.287070514148726197e-01 3.282936064986383684e-01 0.000000000000000000e+00
Cu 5.272188123476140298e-01 4.335061688680406089e-01 0.000000000000000000e+00
Cu 5.258362972927470569e-01 5.388405943476995974e-01 0.000000000000000000e+00
Cu 5.245538439765087269e-01 6.442681519446422644e-01 0.000000000000000000e+00
Cu 5.233413244664377739e-01 7.497621504434340833e-01 0.000000000000000000e+00
Cu 5.221293311210308818e-01 8.552960813928088823e-01 0.000000000000000000e+00
Cu 5.208068466734467883e-01 9.608409612093476992e-01 0.000000000000000000e+00
Cu 6.402045570733719826e-01 1.557496103369314377e-02 0.000000000000000000e+00
Cu 6.381465646353099430e-01 1.202686863651430127e-01 0.000000000000000000e+00
Cu 6.361306138197780902e-01 2.251599115217545466e-01 0.000000000000000000e+00
Cu 6.342269851996107377e-01 3.302401226520723654e-01 0.000000000000000000e+00
Cu 6.324766869352292931e-01 4.354637634523040868e-01 0.000000000000000000e+00
Cu 6.308938784626709761e-01 5.407732906247496585e-01 0.000000000000000000e+00
Cu 6.294611047649918412e-01 6.461207164565374583e-01 0.000000000000000000e+00
Cu 6.281496242746614778e-01 7.515160705289506415e-01 0.000000000000000000e+00
Cu 6.269023294160329662e-01 8.569513842533538206e-01 0.000000000000000000e+00
Cu 6.256142662382931929e-01 9.623865706582830359e-01 0.000000000000000000e+00
Cu 7.467003456120046012e-01 1.782462872594273162e-02 0.000000000000000000e+00
Cu 7.442593421608124649e-01 1.225193237454599571e-01 0.000000000000000000e+00
Cu 7.418633095650094544e-01 2.273993999566903956e-01 0.000000000000000000e+00
Cu 7.396291367990468490e-01 3.324683935482362074e-01 0.000000000000000000e+00
Cu 7.376540673654289337e-01 4.376756709998694816e-01 0.000000000000000000e+00
Cu 7.359516999894791800e-01 5.429037959657083690e-01 0.000000000000000000e+00
Cu 7.344746608005899846e-01 6.481022850181885619e-01 0.000000000000000000e+00
Cu 7.330852324720995572e-01 7.532730884071132671e-01 0.000000000000000000e+00
Cu 7.318477586863110229e-01 8.585367214905438304e-01 0.000000000000000000e+00
Cu 7.307406875824741244e-01 9.637480083491140048e-01 0.000000000000000000e+00
Cu 8.531366719839607038e-01 2.046579017748575285e-02 0.000000000000000000e+00
Cu 8.503013567048467447e-01 1.251668950560838878e-01 0.000000000000000000e+00
Cu 8.475152509794243727e-01 2.300028976889280929e-01 0.000000000000000000e+00
Cu 8.449170451420632277e-01 3.349779356967914623e-01 0.000000000000000000e+00
Cu 8.427329823662306207e-01 4.400804594363204592e-01 0.000000000000000000e+00
Cu 8.410929491376440970e-01 5.451483352002490790e-01 0.000000000000000000e+00
Cu 8.396578582721569983e-01 6.500584436734897498e-01 0.000000000000000000e+00
Cu 8.382290815661118666e-01 7.551309604501165174e-01 0.000000000000000000e+00
Cu 3.077839830679420796e+00 6.856942992392095482e-01 0.000000000000000000e+00
Cu 3.055728579770966569e+00 7.880785603647884052e-01 0.000000000000000000e+00
Cu 9.594971097475979427e-01 2.353796015897657856e-02 0.000000000000000000e+00
Cu 9.562393645790612240e-01 1.282442209232971531e-01 0.000000000000000000e+00
Cu 9.531066089536160968e-01 2.330848384091185888e-01 0.000000000000000000e+00
Cu 9.501632118069608390e-01 3.378735158236131908e-01 0.000000000000000000e+00
Cu 9.477401663596964898e-01 4.426180265369071831e-01 0.000000000000000000e+00
Cu 9.465185455064395459e-01 5.470983712859173176e-01 0.000000000000000000e+00
Cu 9.450256726808560215e-01 6.519951496033309368e-01 0.000000000000000000e+00
Cu 3.209374580152394074e+00 6.078299005634999475e-01 0.000000000000000000e+00
Cu 3.185569175513538465e+00 7.085008412426903046e-01 0.000000000000000000e+00
Cu 3.165809822383159222e+00 8.079618818335394526e-01 0.000000000000000000e+00
Cu 1.065735358641649588e+00 2.706319736435558107e-02 0.000000000000000000e+00
Cu 1.062045389286999209e+00 1.318261333514350320e-01 0.000000000000000000e+00
Cu 1.058486709352557176e+00 2.366367838606565632e-01 0.000000000000000000e+00
Cu 1.055396399157837006e+00 3.415964885912358695e-01 0.000000000000000000e+00
Cu 3.395852087571290756e+00 3.301213219781184427e-01 0.000000000000000000e+00
Cu 3.362365579444436481e+00 4.289117037100196317e-01 0.000000000000000000e+00
Cu 3.343567004763842831e+00 5.310765728914638162e-01 0.000000000000000000e+00
Cu 3.319009582381359458e+00 6.303263735213985308e-01 0.000000000000000000e+00
Cu 3.298942538448473183e+00 7.285389523293795966e-01 0.000000000000000000e+00
Cu 3.282153469486026598e+00 8.257634058510113784e-01 0.000000000000000000e+00
Cu 1.171823345421978635e+00 3.114389573340909864e-02 0.000000000000000000e+00
Cu 1.167582562228210774e+00 1.359163753406046338e-01 0.000000000000000000e+00
Cu 1.163726962523384367e+00 2.409056258018473506e-01 0.000000000000000000e+00
Cu 3.531403158853726243e+00 2.583806905435186430e-01 0.000000000000000000e+00
Cu 3.501487274778729564e+00 3.577338206897781592e-01 0.000000000000000000e+00
Cu 3.479906295318547560e+00 4.558523005597686084e-01 0.000000000000000000e+00
Cu 3.454427182356285098e+00 5.518538795806734454e-01 0.000000000000000000e+00
Cu 3.434959719902131781e+00 6.495365471945374614e-01 0.000000000000000000e+00
Cu 3.417770260194274101e+00 7.454989272469837447e-01 0.000000000000000000e+00
Cu 3.403801844963614709e+00 8.406379653487674464e-01 0.000000000000000000e+00
Cu 1.277635527307053209e+00 3.576946914074928541e-02 0.000000000000000000e+00
Cu 1.272902147565891484e+00 1.407497202103447365e-01 0.000000000000000000e+00
Cu 3.670198104326883648e+00 1.884983464416199739e-01 0.000000000000000000e+00
Cu 3.640193102267734293e+00 2.859586763493540129e-01 0.000000000000000000e+00
Cu 3.615764970642047160e+00 3.818355923953851705e-01 0.000000000000000000e+00
Cu 3.594047235372615834e+00 4.772569900432332424e-01 0.000000000000000000e+00
Cu 3.573937384323694566e+00 5.720599053844247495e-01 0.000000000000000000e+00
Cu 3.556226685307405155e+00 6.657342438788242944e-01 0.000000000000000000e+00
Cu 3.541694579621825767e+00 7.595105217087638749e-01 0.000000000000000000e+00
Cu 3.529980417938737070e+00 8.527162667992093104e-01 0.000000000000000000e+00
Cu 1.383193832403290191e+00 4.134844284000537690e-02 0.000000000000000000e+00
Cu 3.809097189279491147e+00 1.200581175879298496e-01 0.000000000000000000e+00
Cu 3.780648826646495930e+00 2.165427099777607056e-01 0.000000000000000000e+00
Cu 3.756662829049972174e+00 3.107665062175539727e-01 0.000000000000000000e+00
Cu 3.735420625352292578e+00 4.035800229558439978e-01 0.000000000000000000e+00
Cu 3.716148129552717450e+00 4.959049675828847703e-01 0.000000000000000000e+00
Cu 3.698643345114339898e+00 5.878569158293132091e-01 0.000000000000000000e+00
Cu 3.683133343730621512e+00 6.794788255243214836e-01 0.000000000000000000e+00
Cu 3.670114440309050874e+00 7.709551782304644441e-01 0.000000000000000000e+00
Cu 3.660134317113356239e+00 8.623892010586524659e-01 0.000000000000000000e+00
Cu 3.944749712631196559e+00 5.059957879231490735e-02 0.000000000000000000e+00
Cu 3.920851674275296794e+00 1.471442546449848177e-01 0.000000000000000000e+00
Cu 3.899313637229745666e+00 2.403501708381837743e-01 0.000000000000000000e+00
Cu 3.879761235465604585e+00 3.316079601254133813e-01 0.000000000000000000e+00
Cu 3.861611776838411725e+00 4.218247948321478535e-01 0.000000000000000000e+00
Cu 3.844558196970412567e+00 5.115199939057677447e-01 0.000000000000000000e+00
Cu 3.828742331293669032e+00 6.010506321766557747e-01 0.000000000000000000e+00
Cu 3.814567333165039820e+00 6.906089136245948668e-01 0.000000000000000000e+00
Cu 3.802659103362124871e+00 7.803141929325599913e-01 0.000000000000000000e+00
Cu 3.793743757916998138e+00 8.701495773579202009e-01 0.000000000000000000e+00
Cu 4.057383790287406811e+00 7.311233964486009429e-02 0.000000000000000000e+00
Cu 4.041127022812140090e+00 1.677777511746279815e-01 0.000000000000000000e+00
Cu 4.025023430927487489e+00 2.590504041614016817e-01 0.000000000000000000e+00
Cu 4.009301632340198651e+00 3.483093539433619878e-01 0.000000000000000000e+00
Cu 3.993774347369332567e+00 4.365724375331977436e-01 0.000000000000000000e+00
Cu 3.978476826451533110e+00 5.244133279077942689e-01 0.000000000000000000e+00
Cu 3.963752723191920957e+00 6.121129023195061025e-01 0.000000000000000000e+00
Cu 3.950227600299001551e+00 6.999207580373982829e-01 0.000000000000000000e+00
Cu 3.938756839894407502e+00 7.880700351369698264e-01 0.000000000000000000e+00
Cu 3.930345695666860095e+00 8.765841632686679485e-01 0.000000000000000000e+00
Cu 4.179118981077253103e+00 9.101893236456491676e-02 0.000000000000000000e+00
Cu 4.168403660299930813e+00 1.834018279265380025e-01 0.000000000000000000e+00
Cu 4.157114042467379811e+00 2.731192133683109091e-01 0.000000000000000000e+00
Cu 4.144744890773616852e+00 3.610407663658483646e-01 0.000000000000000000e+00
Cu 4.131296095215497566e+00 4.482395807719008474e-01 0.000000000000000000e+00
Cu 4.117282223376403927e+00 5.351538737917879152e-01 0.000000000000000000e+00
Cu 4.103257027085842168e+00 6.217606276436007384e-01 0.000000000000000000e+00
Cu 4.089820554854286527e+00 7.082079954748753403e-01 0.000000000000000000e+00
Cu 4.078032674810383895e+00 7.949887607467340800e-01 0.000000000000000000e+00
Cu 4.069374186371145008e+00 8.824099776977802900e-01 0.000000000000000000e+00
Cu 4.307979746832618417e+00 1.045049303732505375e-01 0.000000000000000000e+00
Cu 4.302381670469041630e+00 1.948486799717388529e-01 0.000000000000000000e+00
Cu 4.295474375934706046e+00 2.829895739273018962e-01 0.000000000000000000e+00
Cu 4.285681430144959947e+00 3.702898784267765753e-01 0.000000000000000000e+00
Cu 4.273521649201173389e+00 4.575057692100210627e-01 0.000000000000000000e+00
Cu 4.260359337431102844e+00 5.444452370981098799e-01 0.000000000000000000e+00
Cu 4.246929346693218754e+00 6.309347967755120079e-01 0.000000000000000000e+00
Cu 4.233265004710902168e+00 7.165839200733675751e-01 0.000000000000000000e+00
Cu 4.220201866445461469e+00 8.020792406998615842e-01 0.000000000000000000e+00
Cu 4.210059383995808702e+00 8.886635574055845588e-01 0.000000000000000000e+00
Cu 4.441758347052032541e+00 1.121469497739251836e-01 0.000000000000000000e+00
Cu 4.443196079815288080e+00 2.010725168977613719e-01 0.000000000000000000e+00
Cu 4.440375972386345182e+00 2.885298872058115194e-01 0.000000000000000000e+00
Cu 4.431308288243457127e+00 3.770528314912983681e-01 0.000000000000000000e+00
Cu 4.419907090796037608e+00 4.653195559337839349e-01 0.000000000000000000e+00
Cu 4.407249287338184551e+00 5.530494680759739934e-01 0.000000000000000000e+00
Cu 4.394069332375080350e+00 6.401723092982765095e-01 0.000000000000000000e+00
Cu 4.380910601887890721e+00 7.266710830857858738e-01 0.000000000000000000e+00
Cu 4.365368407714662169e+00 8.111343337693921463e-01 0.000000000000000000e+00
Cu 4.350742031046966218e+00 8.971604833758695108e-01 0.000000000000000000e+00
Cu 4.574207734529173841e+00 1.049412767834775051e-01 0.000000000000000000e+00
Cu 4.593676488718767992e+00 1.985279082468177636e-01 0.000000000000000000e+00
Cu 4.589508347717072390e+00 2.916862843382688197e-01 0.000000000000000000e+00
Cu 4.581263712850973668e+00 3.830722038049421685e-01 0.000000000000000000e+00
Cu 4.570050229314926327e+00 4.728663609786967759e-01 0.000000000000000000e+00
Cu 4.557624663286960143e+00 5.615627364621340600e-01 0.000000000000000000e+00
Cu 4.544709937104111752e+00 6.495940761891529913e-01 0.000000000000000000e+00
Cu 4.530880806028080521e+00 7.376138020888102220e-01 0.000000000000000000e+00
Cu 4.516731896399742929e+00 8.268795246355666873e-01 0.000000000000000000e+00
Cu 4.484472498273744279e+00 9.155202290498649642e-01 0.000000000000000000e+00
