200

Cu 0.000000000000000000e+00 6.380256528293150320e-02 0.000000000000000000e+00
Cu 0.000000000000000000e+00 1.567646395570025109e-01 0.000000000000000000e+00
Cu 0.000000000000000000e+00 2.479033394134753654e-01 0.000000000000000000e+00
Cu 0.000000000000000000e+00 3.382314922945069968e-01 0.000000000000000000e+00
Cu 0.000000000000000000e+00 4.282727967318626927e-01 0.000000000000000000e+00
Cu 0.000000000000000000e+00 5.182995041798028613e-01 0.000000000000000000e+00
Cu 0.000000000000000000e+00 6.085354374853356729e-01 0.000000000000000000e+00
Cu 0.000000000000000000e+00 6.992258721502745411e-01 0.000000000000000000e+00
Cu 0.000000000000000000e+00 7.908391565687287184e-01 0.000000000000000000e+00
Cu 0.000000000000000000e+00 8.842934175542142006e-01 0.000000000000000000e+00
Cu 1.398627334390697141e-01 7.017934823287366730e-02 0.000000000000000000e+00
Cu 1.383574401397438536e-01 1.589678308625621650e-01 0.000000000000000000e+00
Cu 1.383441942225900612e-01 2.488277269883394649e-01 0.000000000000000000e+00
Cu 1.382797696655047037e-01 3.386739493498464038e-01 0.000000000000000000e+00
Cu 1.381564371009588177e-01 4.284239915513369801e-01 0.000000000000000000e+00
Cu 1.379533455265660458e-01 5.182076163939971503e-01 0.000000000000000000e+00
Cu 1.376882969597240658e-01 6.081619271388647441e-01 0.000000000000000000e+00
Cu 1.374102076853130905e-01 6.983934294110434315e-01 0.000000000000000000e+00
Cu 1.371474277007988518e-01 7.887849398417794422e-01 0.000000000000000000e+00
Cu 1.384162093467392607e-01 8.782301326648956907e-01 0.000000000000000000e+00
Cu 2.790140148928719754e-01 7.315514540284358269e-02 0.000000000000000000e+00
Cu 2.778077022902522009e-01 1.615896147609417188e-01 0.000000000000000000e+00
Cu 2.771655419444751245e-01 2.503903352080984468e-01 0.000000000000000000e+00
Cu 2.769084264850657506e-01 3.395663388280559247e-01 0.000000000000000000e+00
Cu 2.765984810960867568e-01 4.288389398064731406e-01 0.000000000000000000e+00
Cu 2.761829832584213329e-01 5.181849401920296527e-01 0.000000000000000000e+00
Cu 2.757021230603599049e-01 6.076513969126929871e-01 0.000000000000000000e+00
Cu 2.752649625531031208e-01 6.972043047500121604e-01 0.000000000000000000e+00
Cu 2.753214568652822547e-01 7.865633914463557863e-01 0.000000000000000000e+00
Cu 2.760680334728369822e-01 8.757105922056545033e-01 0.000000000000000000e+00
Cu 4.180709984290531533e-01 7.517447276537543577e-02 0.000000000000000000e+00
Cu 4.171156108134528306e-01 1.635428439513161303e-01 0.000000000000000000e+00
Cu 4.164142804746407966e-01 2.520417156980654938e-01 0.000000000000000000e+00
Cu 4.159389441559026568e-01 3.407257003130415018e-01 0.000000000000000000e+00
Cu 4.154644212024916072e-01 4.295032201603016797e-01 0.000000000000000000e+00
Cu 4.148279792046540848e-01 5.183070317860394294e-01 0.000000000000000000e+00
Cu 4.141049890019278812e-01 6.071997909939855775e-01 0.000000000000000000e+00
Cu 4.135175868761647444e-01 6.961822027565752746e-01 0.000000000000000000e+00
Cu 4.132757292970321017e-01 7.852341335333195005e-01 0.000000000000000000e+00
Cu 4.134794890711256943e-01 8.743858228053621451e-01 0.000000000000000000e+00
Cu 5.571220042826272589e-01 7.673003638491621148e-02 0.000000000000000000e+00
Cu 5.563692239369351089e-01 1.650728392529301203e-01 0.000000000000000000e+00
Cu 5.557665232810110600e-01 2.534792251550972986e-01 0.000000000000000000e+00
Cu 5.552797541661504965e-01 3.419551243725484357e-01 0.000000000000000000e+00
Cu 5.548102463267113871e-01 4.304368281396210305e-01 0.000000000000000000e+00
Cu 5.540011388288175187e-01 5.187191466175441468e-01 0.000000000000000000e+00
Cu 5.528978343034650633e-01 6.069840388038554302e-01 0.000000000000000000e+00
Cu 5.518519993002324320e-01 6.955866611961909474e-01 0.000000000000000000e+00
Cu 5.510452513204359137e-01 7.845758508898935668e-01 0.000000000000000000e+00
Cu 5.506022663559236863e-01 8.738619936518476905e-01 0.000000000000000000e+00
Cu 6.962044649970530186e-01 7.796166282955087345e-02 0.000000000000000000e+00
Cu 6.956306156719304079e-01 1.662836215197948941e-01 0.000000000000000000e+00
Cu 6.951632181327470628e-01 2.546630637061687019e-01 0.000000000000000000e+00
Cu 6.948030518175440928e-01 3.431014521709965792e-01 0.000000000000000000e+00
Cu 6.944140267474843142e-01 4.315211969145561488e-01 0.000000000000000000e+00
Cu 6.939780207175837434e-01 5.197721011984696160e-01 0.000000000000000000e+00
Cu 6.922035063971917479e-01 6.071977406488200391e-01 0.000000000000000000e+00
Cu 6.901416369530979367e-01 6.952379731970147470e-01 0.000000000000000000e+00
Cu 6.885287105080356573e-01 7.845852966730596512e-01 0.000000000000000000e+00
Cu 6.872700774433609938e-01 8.742937350511724715e-01 0.000000000000000000e+00
Cu 8.353537487298871023e-01 7.891233051495617767e-02 0.000000000000000000e+00
Cu 8.349386660381791225e-01 1.671993255032869774e-01 0.000000000000000000e+00
Cu 8.346145396290673979e-01 2.555612491171632139e-01 0.000000000000000000e+00
Cu 8.343682492083507318e-01 3.440154035239508801e-01 0.000000000000000000e+00
Cu 8.342452668767009749e-01 4.325610464199728389e-01 0.000000000000000000e+00
Cu 8.338401125732536334e-01 5.210683290301046933e-01 0.000000000000000000e+00
Cu 8.339078985505463670e-01 6.093742568836882922e-01 0.000000000000000000e+00
Cu 8.279778257443655143e-01 6.944587744741632651e-01 0.000000000000000000e+00
Cu 8.247189700168444659e-01 7.849251463161379672e-01 0.000000000000000000e+00
Cu 8.236129356076907770e-01 8.765741381559842837e-01 0.000000000000000000e+00
Cu 9.746123048117291132e-01 7.959854127437113180e-02 0.000000000000000000e+00
Cu 9.743427567679500134e-01 1.678243354609977589e-01 0.000000000000000000e+00
Cu 9.741315525141380771e-01 2.561359392520336509e-01 0.000000000000000000e+00
Cu 9.740231184571632728e-01 3.445729817295592468e-01 0.000000000000000000e+00
Cu 9.739428404156911245e-01 4.331835269391352550e-01 0.000000000000000000e+00
Cu 9.742099163238211457e-01 5.220651258368513847e-01 0.000000000000000000e+00
Cu 9.733011156875319703e-01 6.112917892220247618e-01 0.000000000000000000e+00
Cu 9.768079413100976272e-01 7.015374490439022503e-01 0.000000000000000000e+00
Cu 9.472161957339966243e-01 7.811977813296457906e-01 0.000000000000000000e+00
Cu 9.666721711720239751e-01 8.745062406040314817e-01 0.000000000000000000e+00
Cu 1.114033586215335880e+00 8.004045519994754110e-02 0.000000000000000000e+00
Cu 1.113890283285115856e+00 1.681720658913312960e-01 0.000000000000000000e+00
Cu 1.113791978904512536e+00 2.563789341351770390e-01 0.000000000000000000e+00
Cu 1.113753298583845641e+00 3.446945641985325604e-01 0.000000000000000000e+00
Cu 1.113891626688073844e+00 4.331680381665300450e-01 0.000000000000000000e+00
Cu 1.113902662371913932e+00 5.219042226213657099e-01 0.000000000000000000e+00
Cu 1.115305222573987232e+00 6.109813854387404763e-01 0.000000000000000000e+00
Cu 1.112437879898127147e+00 7.011266169127904346e-01 0.000000000000000000e+00
Cu 1.142704497425143684e+00 7.803983644680817511e-01 0.000000000000000000e+00
Cu 1.124075457163152159e+00 8.737640682504650425e-01 0.000000000000000000e+00
Cu 1.253666242395452546e+00 8.027265077002385119e-02 0.000000000000000000e+00
Cu 1.253639939157248140e+00 1.682797777470355360e-01 0.000000000000000000e+00
Cu 1.253644367201689258e+00 2.563254048901077442e-01 0.000000000000000000e+00
Cu 1.253747388040476585e+00 3.444060223143243782e-01 0.000000000000000000e+00
Cu 1.253935720320734637e+00 4.325227226791405477e-01 0.000000000000000000e+00
Cu 1.254631389975490174e+00 5.205711051709470683e-01 0.000000000000000000e+00
Cu 1.255042011783924494e+00 6.084324988926587130e-01 0.000000000000000000e+00
Cu 1.261621847028804977e+00 6.930645975997650199e-01 0.000000000000000000e+00
Cu 1.265641738478691325e+00 7.831178779023451053e-01 0.000000000000000000e+00
Cu 1.267621249996590649e+00 8.743948608998445282e-01 0.000000000000000000e+00
Cu 1.393547184429969388e+00 8.034534076630971133e-02 0.000000000000000000e+00
Cu 1.393626224658281343e+00 1.682104485444360642e-01 0.000000000000000000e+00
Cu 1.393765330209543185e+00 2.560565501489057705e-01 0.000000000000000000e+00
Cu 1.394004453423605794e+00 3.438397504798193505e-01 0.000000000000000000e+00
Cu 1.394491989987424851e+00 4.314856117872493679e-01 0.000000000000000000e+00
Cu 1.395226692563623416e+00 5.189043647579019147e-01 0.000000000000000000e+00
Cu 1.397494713679929390e+00 6.055161221577906039e-01 0.000000000000000000e+00
Cu 1.400224241027104632e+00 6.928179093911969177e-01 0.000000000000000000e+00
Cu 1.402669206491655496e+00 7.815186124890087793e-01 0.000000000000000000e+00
Cu 1.404825034120338989e+00 8.706400746282045855e-01 0.000000000000000000e+00
Cu 1.533681607705255079e+00 8.031733303921509415e-02 0.000000000000000000e+00
Cu 1.533868073376897012e+00 1.680428285084852036e-01 0.000000000000000000e+00
Cu 1.534160478151557205e+00 2.556874364800708621e-01 0.000000000000000000e+00
Cu 1.534608497438811003e+00 3.431714285238898210e-01 0.000000000000000000e+00
Cu 1.535258505027412568e+00 4.304436708086646357e-01 0.000000000000000000e+00
Cu 1.536400940575386453e+00 5.174114915842551454e-01 0.000000000000000000e+00
Cu 1.537975810099530216e+00 6.044111827322307118e-01 0.000000000000000000e+00
Cu 1.539679072918286984e+00 6.919181551938581309e-01 0.000000000000000000e+00
Cu 1.541342651863817581e+00 7.800050757167991122e-01 0.000000000000000000e+00
Cu 1.542794749550014277e+00 8.685074867872580873e-01 0.000000000000000000e+00
Cu 1.674038823120628239e+00 8.023849353243837912e-02 0.000000000000000000e+00
Cu 1.674344681916856814e+00 1.678518151720020113e-01 0.000000000000000000e+00
Cu 1.674834694585587869e+00 2.553246980619999218e-01 0.000000000000000000e+00
Cu 1.675485238929337539e+00 3.425738912593305208e-01 0.000000000000000000e+00
Cu 1.676323403054021055e+00 4.295809542193399500e-01 0.000000000000000000e+00
Cu 1.677340947578638941e+00 5.164795006157909540e-01 0.000000000000000000e+00
Cu 1.678449075655016332e+00 6.035328781582333102e-01 0.000000000000000000e+00
Cu 1.679562549440992480e+00 6.909524046637340877e-01 0.000000000000000000e+00
Cu 1.680633477603762360e+00 7.788027988782385558e-01 0.000000000000000000e+00
Cu 1.681580013288347608e+00 8.669887290094747678e-01 0.000000000000000000e+00
Cu 1.814542967542523755e+00 8.012538487291190337e-02 0.000000000000000000e+00
Cu 1.815013179066060856e+00 1.676759169599475741e-01 0.000000000000000000e+00
Cu 1.815755842103240703e+00 2.550315847498187960e-01 0.000000000000000000e+00
Cu 1.816652781976261011e+00 3.421127372908133735e-01 0.000000000000000000e+00
Cu 1.817586708315742205e+00 4.289709083602057382e-01 0.000000000000000000e+00
Cu 1.818449342969863380e+00 5.157771705528585438e-01 0.000000000000000000e+00
Cu 1.819179953822841034e+00 6.027484334013761824e-01 0.000000000000000000e+00
Cu 1.819791710688042130e+00 6.900555759847323278e-01 0.000000000000000000e+00
Cu 1.820345405642301406e+00 7.777589979300000289e-01 0.000000000000000000e+00
Cu 1.820908063607511451e+00 8.657648932684969267e-01 0.000000000000000000e+00
Cu 1.955074357334058544e+00 7.993019323631284090e-02 0.000000000000000000e+00
Cu 1.955805491752681036e+00 1.674867279834418576e-01 0.000000000000000000e+00
Cu 1.956914218284512286e+00 2.547817842017320866e-01 0.000000000000000000e+00
Cu 1.958129738526947161e+00 3.417564720966070890e-01 0.000000000000000000e+00
Cu 1.959195824194032154e+00 4.285069385369992268e-01 0.000000000000000000e+00
Cu 1.959930154944605096e+00 5.152140215620241159e-01 0.000000000000000000e+00
Cu 1.960287618978021174e+00 6.020776417802911062e-01 0.000000000000000000e+00
Cu 1.960369876828766955e+00 6.892684012634160418e-01 0.000000000000000000e+00
Cu 1.960374188882592073e+00 7.768668071714222023e-01 0.000000000000000000e+00
Cu 1.960531080223533174e+00 8.647888444117480811e-01 0.000000000000000000e+00
Cu 2.095457868489357889e+00 7.950820540555048055e-02 0.000000000000000000e+00
Cu 2.096643369587674499e+00 1.671560828591339420e-01 0.000000000000000000e+00
Cu 2.098320895294112809e+00 2.544356797040450147e-01 0.000000000000000000e+00
Cu 2.100000103406481688e+00 3.413490037693273083e-01 0.000000000000000000e+00
Cu 2.101275836707974687e+00 4.280789846128730258e-01 0.000000000000000000e+00
Cu 2.101912463179856250e+00 5.147967007918913263e-01 0.000000000000000000e+00
Cu 2.101872645289128982e+00 6.016218132886088643e-01 0.000000000000000000e+00
Cu 2.101323943810076145e+00 6.887149463628178259e-01 0.000000000000000000e+00
Cu 2.100619242485498361e+00 7.762406177005062302e-01 0.000000000000000000e+00
Cu 2.100212554656788466e+00 8.641762034661050196e-01 0.000000000000000000e+00
Cu 2.235425261698734012e+00 7.856761616373568458e-02 0.000000000000000000e+00
Cu 2.237447789555994326e+00 1.664141718971363926e-01 0.000000000000000000e+00
Cu 2.240051542905471482e+00 2.536879896865910644e-01 0.000000000000000000e+00
Cu 2.242367740112914287e+00 3.406116934404993524e-01 0.000000000000000000e+00
Cu 2.243865955125917022e+00 4.275538283885081392e-01 0.000000000000000000e+00
Cu 2.244433593165202190e+00 5.145932790546777769e-01 0.000000000000000000e+00
Cu 2.244037171574005285e+00 6.016099888540731300e-01 0.000000000000000000e+00
Cu 2.242726860673542433e+00 6.886739023428115614e-01 0.000000000000000000e+00
Cu 2.240986372622787215e+00 7.761372585663073309e-01 0.000000000000000000e+00
Cu 2.239653387547409835e+00 8.642028771400003251e-01 0.000000000000000000e+00
Cu 2.374479393486992773e+00 7.653934099104903188e-02 0.000000000000000000e+00
Cu 2.378197769947171025e+00 1.647300757425096962e-01 0.000000000000000000e+00
Cu 2.382327280265515768e+00 2.519523327530036050e-01 0.000000000000000000e+00
Cu 2.385289077879635400e+00 3.391712580587591952e-01 0.000000000000000000e+00
Cu 2.386846111271928805e+00 4.268371355410809365e-01 0.000000000000000000e+00
Cu 2.387370507029974664e+00 5.146469044612526078e-01 0.000000000000000000e+00
Cu 2.386829594518318221e+00 6.023729595862917785e-01 0.000000000000000000e+00
Cu 2.384791465653543607e+00 6.897047446407934546e-01 0.000000000000000000e+00
Cu 2.381443084846568858e+00 7.770736053837509205e-01 0.000000000000000000e+00
Cu 2.378339493942176919e+00 8.654266984635399229e-01 0.000000000000000000e+00
Cu 2.511395830844854959e+00 7.206164257709878063e-02 0.000000000000000000e+00
Cu 2.519261954647832091e+00 1.607829171550232139e-01 0.000000000000000000e+00
Cu 2.525530371408412300e+00 2.482982233102743741e-01 0.000000000000000000e+00
Cu 2.528417069567352904e+00 3.369981579111966385e-01 0.000000000000000000e+00
Cu 2.530045030940534900e+00 4.259190347065837656e-01 0.000000000000000000e+00
Cu 2.530545702435613720e+00 5.149163672106092937e-01 0.000000000000000000e+00
Cu 2.529889883212566470e+00 6.038998696371299379e-01 0.000000000000000000e+00
Cu 2.527884857978990318e+00 6.927078198675304943e-01 0.000000000000000000e+00
Cu 2.522353419072686176e+00 7.803629055678896753e-01 0.000000000000000000e+00
Cu 2.515040820247961051e+00 8.692103682023001321e-01 0.000000000000000000e+00
Cu 2.641468818228970505e+00 5.822557668364207462e-02 0.000000000000000000e+00
Cu 2.662806492959119531e+00 1.513424991832634792e-01 0.000000000000000000e+00
Cu 2.668291766879592242e+00 2.436120210820327814e-01 0.000000000000000000e+00
Cu 2.671708259523230211e+00 3.345873233274477276e-01 0.000000000000000000e+00
Cu 2.673319315660299900e+00 4.249529420013858361e-01 0.000000000000000000e+00
Cu 2.673808937881154257e+00 5.151936151735088121e-01 0.000000000000000000e+00
Cu 2.673150269182733130e+00 6.056417959514923677e-01 0.000000000000000000e+00
Cu 2.670610030138952595e+00 6.967676472709274371e-01 0.000000000000000000e+00
Cu 2.665866803948826025e+00 7.892093234801034196e-01 0.000000000000000000e+00
Cu 2.645087370873732802e+00 8.825191010498316668e-01 0.000000000000000000e+00
