200

Cu 0.000000000000000000e+00 3.006130962952931196e-02 0.000000000000000000e+00
Cu 0.000000000000000000e+00 1.295046859220009838e-01 0.000000000000000000e+00
Cu 0.000000000000000000e+00 2.280918410840409027e-01 0.000000000000000000e+00
Cu 0.000000000000000000e+00 3.262935138310030792e-01 0.000000000000000000e+00
Cu 0.000000000000000000e+00 4.243681437823128566e-01 0.000000000000000000e+00
Cu 0.000000000000000000e+00 5.224439780898697538e-01 0.000000000000000000e+00
Cu 0.000000000000000000e+00 6.206226897071425164e-01 0.000000000000000000e+00
Cu 0.000000000000000000e+00 7.190193895427332560e-01 0.000000000000000000e+00
Cu 0.000000000000000000e+00 8.178649761547489572e-01 0.000000000000000000e+00
Cu 0.000000000000000000e+00 9.175872283937949181e-01 0.000000000000000000e+00
Cu 1.220281471084530694e-01 3.349989432906586018e-02 0.000000000000000000e+00
Cu 1.210145961863694913e-01 1.306894785211340504e-01 0.000000000000000000e+00
Cu 1.209444283877869758e-01 2.285891363327921533e-01 0.000000000000000000e+00
Cu 1.208909457557821310e-01 3.265353898798615817e-01 0.000000000000000000e+00
Cu 1.208148894653782585e-01 4.244557619027938822e-01 0.000000000000000000e+00
Cu 1.207082027143190767e-01 5.224040183558021910e-01 0.000000000000000000e+00
Cu 1.205778377361002018e-01 6.204362316881373296e-01 0.000000000000000000e+00
Cu 1.204432242823770816e-01 7.185920371422657160e-01 0.000000000000000000e+00
Cu 1.203496098615506882e-01 8.167854889699061038e-01 0.000000000000000000e+00
Cu 1.211881961393603407e-01 9.143640611889488623e-01 0.000000000000000000e+00
Cu 2.436177875196553766e-01 3.513865331751168247e-02 0.000000000000000000e+00
Cu 2.427337324252158424e-01 1.322183757549958427e-01 0.000000000000000000e+00
Cu 2.422370911013098926e-01 2.295039182110411580e-01 0.000000000000000000e+00
Cu 2.420231365770539600e-01 3.270590733924010896e-01 0.000000000000000000e+00
Cu 2.418247703427960082e-01 4.247049992836359755e-01 0.000000000000000000e+00
Cu 2.416032099738301964e-01 5.224090978591420242e-01 0.000000000000000000e+00
Cu 2.413796596345895162e-01 6.201728897422291720e-01 0.000000000000000000e+00
Cu 2.412155810808541412e-01 7.179429302795848900e-01 0.000000000000000000e+00
Cu 2.413658986268180096e-01 8.155389783970037332e-01 0.000000000000000000e+00
Cu 2.419291825483937397e-01 9.130252632419053604e-01 0.000000000000000000e+00
Cu 3.651291385242826926e-01 3.634943788344507931e-02 0.000000000000000000e+00
Cu 3.643888179979165587e-01 1.334038169465918688e-01 0.000000000000000000e+00
Cu 3.638340587633134282e-01 2.305318381661205507e-01 0.000000000000000000e+00
Cu 3.634579702616765329e-01 3.277823899409418873e-01 0.000000000000000000e+00
Cu 3.631373833435487808e-01 4.251153984903825456e-01 0.000000000000000000e+00
Cu 3.627870508948547457e-01 5.224893771716146995e-01 0.000000000000000000e+00
Cu 3.624661843470088907e-01 6.199185825552140372e-01 0.000000000000000000e+00
Cu 3.622848340591255378e-01 7.173586963862353949e-01 0.000000000000000000e+00
Cu 3.623076906739442493e-01 8.147862734147911512e-01 0.000000000000000000e+00
Cu 3.625442488817860465e-01 9.122656793802138564e-01 0.000000000000000000e+00
Cu 4.866626720019728292e-01 3.735626422508911415e-02 0.000000000000000000e+00
Cu 4.860341997834847216e-01 1.343862414001588679e-01 0.000000000000000000e+00
Cu 4.855310997751618451e-01 2.314569140816108428e-01 0.000000000000000000e+00
Cu 4.851432573192681064e-01 3.285752659753869986e-01 0.000000000000000000e+00
Cu 4.848057537408224094e-01 4.256998088681707704e-01 0.000000000000000000e+00
Cu 4.843482472790932025e-01 5.227237658440084811e-01 0.000000000000000000e+00
Cu 4.838257270552270839e-01 6.197704595676611916e-01 0.000000000000000000e+00
Cu 4.834550744659341648e-01 7.170108292231691660e-01 0.000000000000000000e+00
Cu 4.832206135238717448e-01 8.144127223322280562e-01 0.000000000000000000e+00
Cu 4.830790889516504150e-01 9.119276771908492174e-01 0.000000000000000000e+00
Cu 6.082662574457867732e-01 3.822818823693377444e-02 0.000000000000000000e+00
Cu 6.077308558484169065e-01 1.352158210833303287e-01 0.000000000000000000e+00
Cu 6.073029205081070803e-01 2.322466430066704168e-01 0.000000000000000000e+00
Cu 6.069835306570359190e-01 3.293182044370794315e-01 0.000000000000000000e+00
Cu 6.067222075167540973e-01 4.263841050310603897e-01 0.000000000000000000e+00
Cu 6.064319958693946688e-01 5.233254205550043059e-01 0.000000000000000000e+00
Cu 6.055561263034638930e-01 6.198326478225734126e-01 0.000000000000000000e+00
Cu 6.046078208905333318e-01 7.167693971807496123e-01 0.000000000000000000e+00
Cu 6.040684841453873855e-01 8.144174517642192024e-01 0.000000000000000000e+00
Cu 6.035178376863639116e-01 9.121644051130097797e-01 0.000000000000000000e+00
Cu 7.299868015521920883e-01 3.898843466863447654e-02 0.000000000000000000e+00
Cu 7.295283144095197070e-01 1.359087431434759519e-01 0.000000000000000000e+00
Cu 7.291691527846391185e-01 2.328841067357333150e-01 0.000000000000000000e+00
Cu 7.289194045233132746e-01 3.299220607295105245e-01 0.000000000000000000e+00
Cu 7.287850120013363853e-01 4.270145541342245665e-01 0.000000000000000000e+00
Cu 7.286423628474595349e-01 5.240921235399352840e-01 0.000000000000000000e+00
Cu 7.285254059603654131e-01 6.209684713282779267e-01 0.000000000000000000e+00
Cu 7.257861629667921033e-01 7.162238604146815568e-01 0.000000000000000000e+00
Cu 7.239762212199537528e-01 8.145934523756394041e-01 0.000000000000000000e+00
Cu 7.242288331457344963e-01 9.133111341219166679e-01 0.000000000000000000e+00
Cu 8.518755266209354637e-01 3.965336428792112788e-02 0.000000000000000000e+00
Cu 8.514784401990170837e-01 1.364769913655672906e-01 0.000000000000000000e+00
Cu 8.511690079616883731e-01 2.333629410192562537e-01 0.000000000000000000e+00
Cu 8.509719351226747719e-01 3.303290952841142492e-01 0.000000000000000000e+00
Cu 8.508886569907596620e-01 4.273995372040789165e-01 0.000000000000000000e+00
Cu 8.509799545845648794e-01 5.246179959118009162e-01 0.000000000000000000e+00
Cu 8.508407405745274099e-01 6.220308492391881661e-01 0.000000000000000000e+00
Cu 8.519239427541660525e-01 7.198029443448598075e-01 0.000000000000000000e+00
Cu 8.379462476711173613e-01 8.126079030053975361e-01 0.000000000000000000e+00
Cu 8.481660469483432996e-01 9.119664766123305455e-01 0.000000000000000000e+00
Cu 9.739856800026567285e-01 4.024257798041398770e-02 0.000000000000000000e+00
Cu 9.736356221336526229e-01 1.369392134537295302e-01 0.000000000000000000e+00
Cu 9.733649729275107854e-01 2.336934294519337485e-01 0.000000000000000000e+00
Cu 9.731981003614289527e-01 3.305187129988559347e-01 0.000000000000000000e+00
Cu 9.731733146815932933e-01 4.274394445536727205e-01 0.000000000000000000e+00
Cu 9.732492289511868178e-01 5.245027793525578463e-01 0.000000000000000000e+00
Cu 9.738259734395754430e-01 6.217601134647103844e-01 0.000000000000000000e+00
Cu 9.734031191911084457e-01 7.193878292687456710e-01 0.000000000000000000e+00
Cu 9.881834190499454440e-01 8.119094942303530793e-01 0.000000000000000000e+00
Cu 9.789520414785045643e-01 9.112214194422647573e-01 0.000000000000000000e+00
Cu 1.096365910647000286e+00 4.077987157141139962e-02 0.000000000000000000e+00
Cu 1.096054016169578427e+00 1.373222538974792073e-01 0.000000000000000000e+00
Cu 1.095822158737931318e+00 2.339015560585922804e-01 0.000000000000000000e+00
Cu 1.095705634735898437e+00 3.305098869543518503e-01 0.000000000000000000e+00
Cu 1.095734487177878691e+00 4.271393784808834027e-01 0.000000000000000000e+00
Cu 1.096051329773083838e+00 5.237357952593483246e-01 0.000000000000000000e+00
Cu 1.096604819223370830e+00 6.201350671946961324e-01 0.000000000000000000e+00
Cu 1.100012047143954730e+00 7.149145029118453287e-01 0.000000000000000000e+00
Cu 1.102680330635418704e+00 8.128236268180362156e-01 0.000000000000000000e+00
Cu 1.103466442416084714e+00 9.111096614221848577e-01 0.000000000000000000e+00
Cu 1.219052913834739904e+00 4.129170934868736653e-02 0.000000000000000000e+00
Cu 1.218777316125911003e+00 1.376605691969943202e-01 0.000000000000000000e+00
Cu 1.218603017492619234e+00 2.340295815918635447e-01 0.000000000000000000e+00
Cu 1.218564778861583209e+00 3.303619927627283182e-01 0.000000000000000000e+00
Cu 1.218736936712177643e+00 4.266110942300840314e-01 0.000000000000000000e+00
Cu 1.219209550556529464e+00 5.226964095229644780e-01 0.000000000000000000e+00
Cu 1.220532270949795661e+00 6.183615842803004137e-01 0.000000000000000000e+00
Cu 1.222172555099263480e+00 7.145049116608190864e-01 0.000000000000000000e+00
Cu 1.223623496495251484e+00 8.114182323354204307e-01 0.000000000000000000e+00
Cu 1.225242164684285484e+00 9.084550214896587317e-01 0.000000000000000000e+00
Cu 1.342061755279012170e+00 4.180394578501906572e-02 0.000000000000000000e+00
Cu 1.341831845929186917e+00 1.379938074864333342e-01 0.000000000000000000e+00
Cu 1.341744071568851560e+00 2.341357702049818301e-01 0.000000000000000000e+00
Cu 1.341826697646388178e+00 3.301693767684876213e-01 0.000000000000000000e+00
Cu 1.342129444709229569e+00 4.260552489901890394e-01 0.000000000000000000e+00
Cu 1.342790294033884724e+00 5.217660219756453666e-01 0.000000000000000000e+00
Cu 1.343747683380979607e+00 6.175385670858959397e-01 0.000000000000000000e+00
Cu 1.344805667189677756e+00 7.136277827887332892e-01 0.000000000000000000e+00
Cu 1.345975716234445008e+00 8.100076344538127415e-01 0.000000000000000000e+00
Cu 1.347263923850742229e+00 9.065653016152700472e-01 0.000000000000000000e+00
Cu 1.465377507916557853e+00 4.233362787786437709e-02 0.000000000000000000e+00
Cu 1.465218227522963046e+00 1.383577160949465423e-01 0.000000000000000000e+00
Cu 1.465260450819530602e+00 2.342798966896062485e-01 0.000000000000000000e+00
Cu 1.465488076212041468e+00 3.300333167807370516e-01 0.000000000000000000e+00
Cu 1.465906365831256553e+00 4.256152087328671785e-01 0.000000000000000000e+00
Cu 1.466491016753866727e+00 5.211360790239391028e-01 0.000000000000000000e+00
Cu 1.467176588778195345e+00 6.167723067851652585e-01 0.000000000000000000e+00
Cu 1.467945615471774934e+00 7.126346644204122338e-01 0.000000000000000000e+00
Cu 1.468831445134288316e+00 8.087403209174460761e-01 0.000000000000000000e+00
Cu 1.469832153786392759e+00 9.050420547023726447e-01 0.000000000000000000e+00
Cu 1.588949098912930902e+00 4.287334698289788776e-02 0.000000000000000000e+00
Cu 1.588912680126362220e+00 1.387640388843107142e-01 0.000000000000000000e+00
Cu 1.589148031492092716e+00 2.344936760822051713e-01 0.000000000000000000e+00
Cu 1.589563481372987086e+00 3.299998112132973560e-01 0.000000000000000000e+00
Cu 1.590062468244991312e+00 4.253272354383360043e-01 0.000000000000000000e+00
Cu 1.590558779730770089e+00 5.206109983891070714e-01 0.000000000000000000e+00
Cu 1.591022821803197207e+00 6.160100372802465030e-01 0.000000000000000000e+00
Cu 1.591500665286574856e+00 7.116405599985609065e-01 0.000000000000000000e+00
Cu 1.592076349377508526e+00 8.075439333272291798e-01 0.000000000000000000e+00
Cu 1.592830169819273056e+00 9.036630471445343815e-01 0.000000000000000000e+00
Cu 1.712687935277819706e+00 4.336871809813083734e-02 0.000000000000000000e+00
Cu 1.712872336796742667e+00 1.391735934595048907e-01 0.000000000000000000e+00
Cu 1.713407648224417379e+00 2.347421253794244600e-01 0.000000000000000000e+00
Cu 1.714090450820082268e+00 3.300302861250974384e-01 0.000000000000000000e+00
Cu 1.714718496965172090e+00 4.251170942100233607e-01 0.000000000000000000e+00
Cu 1.715149055661068234e+00 5.201519195894309666e-01 0.000000000000000000e+00
Cu 1.715364696453139270e+00 6.152999119067158462e-01 0.000000000000000000e+00
Cu 1.715476355936449426e+00 7.107009221615419037e-01 0.000000000000000000e+00
Cu 1.715663407086900127e+00 8.064240587923122705e-01 0.000000000000000000e+00
Cu 1.716116190120278606e+00 9.024174500633531659e-01 0.000000000000000000e+00
Cu 1.836464566703202017e+00 4.369162772062550743e-02 0.000000000000000000e+00
Cu 1.837048236499687182e+00 1.394672013601598037e-01 0.000000000000000000e+00
Cu 1.838061161333982341e+00 2.348918578144452429e-01 0.000000000000000000e+00
Cu 1.839141240322016646e+00 3.299843873637759994e-01 0.000000000000000000e+00
Cu 1.839967616496254399e+00 4.249012009842280668e-01 0.000000000000000000e+00
Cu 1.840350573672286938e+00 5.197891003314257796e-01 0.000000000000000000e+00
Cu 1.840275907298488001e+00 6.147540738234948954e-01 0.000000000000000000e+00
Cu 1.839907033747638643e+00 7.099378750799434368e-01 0.000000000000000000e+00
Cu 1.839544322207839810e+00 8.054884696152853074e-01 0.000000000000000000e+00
Cu 1.839536085943524801e+00 9.014149220728951972e-01 0.000000000000000000e+00
Cu 1.960088279671720723e+00 4.360052942698493944e-02 0.000000000000000000e+00
Cu 1.961406227323345686e+00 1.394067623075307127e-01 0.000000000000000000e+00
Cu 1.963183682915525363e+00 2.346685545230214331e-01 0.000000000000000000e+00
Cu 1.964785569266817244e+00 3.296198010051383798e-01 0.000000000000000000e+00
Cu 1.965807847810752795e+00 4.245746578504223656e-01 0.000000000000000000e+00
Cu 1.966158083124478040e+00 5.195941196177314980e-01 0.000000000000000000e+00
Cu 1.965822603524929324e+00 6.145857167127466436e-01 0.000000000000000000e+00
Cu 1.964868881764731956e+00 7.096069725869462719e-01 0.000000000000000000e+00
Cu 1.963683059332261172e+00 8.049657626554331813e-01 0.000000000000000000e+00
Cu 1.962888820787043409e+00 9.008882323242481949e-01 0.000000000000000000e+00
Cu 2.083228243309826588e+00 4.263590968230852873e-02 0.000000000000000000e+00
Cu 2.085993268617744700e+00 1.385271603559016240e-01 0.000000000000000000e+00
Cu 2.088950642276828251e+00 2.335773280482986991e-01 0.000000000000000000e+00
Cu 2.091010197383762925e+00 3.286489153403412966e-01 0.000000000000000000e+00
Cu 2.092084754177359063e+00 4.240672199323888281e-01 0.000000000000000000e+00
Cu 2.092414815183136767e+00 5.196095037593834176e-01 0.000000000000000000e+00
Cu 2.091986627439987867e+00 6.150574784804039297e-01 0.000000000000000000e+00
Cu 2.090533707722737500e+00 7.101850396321131020e-01 0.000000000000000000e+00
Cu 2.088123236551866935e+00 8.053105607639265973e-01 0.000000000000000000e+00
Cu 2.085838181392665192e+00 9.012896460524482123e-01 0.000000000000000000e+00
Cu 2.205150203141555743e+00 3.970408047085254022e-02 0.000000000000000000e+00
Cu 2.211201781886166895e+00 1.357091041765874639e-01 0.000000000000000000e+00
Cu 2.215472936471075460e+00 2.309799218869403037e-01 0.000000000000000000e+00
Cu 2.217510798159812779e+00 3.270710200441986903e-01 0.000000000000000000e+00
Cu 2.218574378560441929e+00 4.233977597582523900e-01 0.000000000000000000e+00
Cu 2.218893364364765475e+00 5.197891782537010785e-01 0.000000000000000000e+00
Cu 2.218455157438238956e+00 6.161465805315053945e-01 0.000000000000000000e+00
Cu 2.217004123741176613e+00 7.122922995190466011e-01 0.000000000000000000e+00
Cu 2.213255622721594040e+00 8.076341120295298381e-01 0.000000000000000000e+00
Cu 2.207649134358947940e+00 9.037108129139238555e-01 0.000000000000000000e+00
Cu 2.323711430411207424e+00 2.970552759379048099e-02 0.000000000000000000e+00
Cu 2.337706240659009893e+00 1.289441855456611719e-01 0.000000000000000000e+00
Cu 2.341827919565817595e+00 2.275069847571335457e-01 0.000000000000000000e+00
Cu 2.344061630206044633e+00 3.252959954246618102e-01 0.000000000000000000e+00
Cu 2.345135824677754499e+00 4.226871043414992535e-01 0.000000000000000000e+00
Cu 2.345448508391753339e+00 5.199845024225238088e-01 0.000000000000000000e+00
Cu 2.344989021245927674e+00 6.174163026108889785e-01 0.000000000000000000e+00
Cu 2.343338501571137211e+00 7.152795296236554856e-01 0.000000000000000000e+00
Cu 2.339745303296398404e+00 8.139324204756896997e-01 0.000000000000000000e+00
Cu 2.326200489020759044e+00 9.132727640990553342e-01 0.000000000000000000e+00
