200

Cu 0.000000000000000000e+00 2.697445202660790284e-02 0.000000000000000000e+00
Cu 0.000000000000000000e+00 1.270035002054072382e-01 0.000000000000000000e+00
Cu 0.000000000000000000e+00 2.262640917456282819e-01 0.000000000000000000e+00
Cu 0.000000000000000000e+00 3.251803910336862335e-01 0.000000000000000000e+00
Cu 0.000000000000000000e+00 4.239849626252341630e-01 0.000000000000000000e+00
Cu 0.000000000000000000e+00 5.227921482492248195e-01 0.000000000000000000e+00
Cu 0.000000000000000000e+00 6.216920591310183264e-01 0.000000000000000000e+00
Cu 0.000000000000000000e+00 7.207872726020142506e-01 0.000000000000000000e+00
Cu 0.000000000000000000e+00 8.202854543272795063e-01 0.000000000000000000e+00
Cu 0.000000000000000000e+00 9.205719192697557895e-01 0.000000000000000000e+00
Cu 1.204164351731500521e-01 3.011306775282853940e-02 0.000000000000000000e+00
Cu 1.194710315077896906e-01 1.280841249206291499e-01 0.000000000000000000e+00
Cu 1.193983964655312285e-01 2.267183051131263505e-01 0.000000000000000000e+00
Cu 1.193456155589304180e-01 3.254019442080909319e-01 0.000000000000000000e+00
Cu 1.192737367281601485e-01 4.240658621165120379e-01 0.000000000000000000e+00
Cu 1.191755979438509083e-01 5.227567548956622012e-01 0.000000000000000000e+00
Cu 1.190572661456215653e-01 6.215233091370356844e-01 0.000000000000000000e+00
Cu 1.189359346000100071e-01 7.203993293572920065e-01 0.000000000000000000e+00
Cu 1.188556380715853900e-01 8.193039916297786274e-01 0.000000000000000000e+00
Cu 1.196346759260275838e-01 9.176361355447227863e-01 0.000000000000000000e+00
Cu 2.404303171456524113e-01 3.161468033310221165e-02 0.000000000000000000e+00
Cu 2.395961757734975661e-01 1.294928171145297291e-01 0.000000000000000000e+00
Cu 2.391238938015340099e-01 2.275622648379065638e-01 0.000000000000000000e+00
Cu 2.389174148676320997e-01 3.258857613721076185e-01 0.000000000000000000e+00
Cu 2.387303380030570410e-01 4.242969936473222070e-01 0.000000000000000000e+00
Cu 2.385262534320242711e-01 5.227636354962655885e-01 0.000000000000000000e+00
Cu 2.383244063403542612e-01 6.212841498598135059e-01 0.000000000000000000e+00
Cu 2.381811239933041280e-01 7.198059801054164097e-01 0.000000000000000000e+00
Cu 2.383300775945231265e-01 8.181616556862227885e-01 0.000000000000000000e+00
Cu 2.388606486289423236e-01 9.164155331436759644e-01 0.000000000000000000e+00
Cu 3.603732909894770131e-01 3.274004668401434698e-02 0.000000000000000000e+00
Cu 3.596670959744635021e-01 1.305934562336789617e-01 0.000000000000000000e+00
Cu 3.591367157109401909e-01 2.285181258400807991e-01 0.000000000000000000e+00
Cu 3.587762078251969800e-01 3.265587125400959967e-01 0.000000000000000000e+00
Cu 3.584728974501414367e-01 4.246787182023531448e-01 0.000000000000000000e+00
Cu 3.581492558273516313e-01 5.228392791867431111e-01 0.000000000000000000e+00
Cu 3.578607745473025292e-01 6.210508236008392968e-01 0.000000000000000000e+00
Cu 3.577072507994439876e-01 7.192684005514412560e-01 0.000000000000000000e+00
Cu 3.577434977265028793e-01 8.174686253318200757e-01 0.000000000000000000e+00
Cu 3.579750066287358812e-01 9.157127653766710118e-01 0.000000000000000000e+00
Cu 4.803435050773022796e-01 3.368822679930794095e-02 0.000000000000000000e+00
Cu 4.797357768939557454e-01 1.315154874378306193e-01 0.000000000000000000e+00
Cu 4.792495237079590908e-01 2.293844228736062751e-01 0.000000000000000000e+00
Cu 4.788757743139788747e-01 3.273003276430687669e-01 0.000000000000000000e+00
Cu 4.785540960698764779e-01 4.252234233252955575e-01 0.000000000000000000e+00
Cu 4.781299132659915796e-01 5.230556599090800951e-01 0.000000000000000000e+00
Cu 4.776567370613916119e-01 6.209118093502067337e-01 0.000000000000000000e+00
Cu 4.773345978298637049e-01 7.189449754013370608e-01 0.000000000000000000e+00
Cu 4.771414021506118486e-01 8.171201623306574291e-01 0.000000000000000000e+00
Cu 4.770276638782934842e-01 9.153904029399871911e-01 0.000000000000000000e+00
Cu 6.003889155960201451e-01 3.452182885952130575e-02 0.000000000000000000e+00
Cu 5.998619095078957519e-01 1.323038901218291097e-01 0.000000000000000000e+00
Cu 5.994413145835825185e-01 2.301306280670597504e-01 0.000000000000000000e+00
Cu 5.991283342057167616e-01 3.279983425122690588e-01 0.000000000000000000e+00
Cu 5.988777638425570871e-01 4.258627510567106200e-01 0.000000000000000000e+00
Cu 5.986041725066865160e-01 5.236106143522334389e-01 0.000000000000000000e+00
Cu 5.978060394487577645e-01 6.209616156630961559e-01 0.000000000000000000e+00
Cu 5.969530261517062009e-01 7.187140949482507812e-01 0.000000000000000000e+00
Cu 5.964911433374159300e-01 8.171145128689549786e-01 0.000000000000000000e+00
Cu 5.960138455860202189e-01 9.155933931503724699e-01 0.000000000000000000e+00
Cu 7.205566890004606595e-01 3.526217959075510222e-02 0.000000000000000000e+00
Cu 7.200949336962672032e-01 1.329738102483230267e-01 0.000000000000000000e+00
Cu 7.197331981670118672e-01 2.307413481984920967e-01 0.000000000000000000e+00
Cu 7.194819411453694524e-01 3.285703843874712149e-01 0.000000000000000000e+00
Cu 7.193460432243180547e-01 4.264518560013689230e-01 0.000000000000000000e+00
Cu 7.192170620024367356e-01 5.243206622879443835e-01 0.000000000000000000e+00
Cu 7.190990868135014313e-01 6.219962068012855338e-01 0.000000000000000000e+00
Cu 7.166211615469352259e-01 7.181947854293334599e-01 0.000000000000000000e+00
Cu 7.149689399768953679e-01 8.172596057669344605e-01 0.000000000000000000e+00
Cu 7.152958246106827511e-01 9.166087884817230025e-01 0.000000000000000000e+00
Cu 8.408978415598623579e-01 3.592506796324347607e-02 0.000000000000000000e+00
Cu 8.404863328065603767e-01 1.335372377647128517e-01 0.000000000000000000e+00
Cu 8.401654079953004839e-01 2.312121134190309457e-01 0.000000000000000000e+00
Cu 8.399583401337185062e-01 3.289646625548865999e-01 0.000000000000000000e+00
Cu 8.398688546520683973e-01 4.268157272635068056e-01 0.000000000000000000e+00
Cu 8.399468737944506547e-01 5.248038802512366985e-01 0.000000000000000000e+00
Cu 8.398463450611007852e-01 6.229712792119412867e-01 0.000000000000000000e+00
Cu 8.407783858848052461e-01 7.214488361389196358e-01 0.000000000000000000e+00
Cu 8.281350771206982264e-01 8.154059254143153357e-01 0.000000000000000000e+00
Cu 8.375135525853386609e-01 9.153166284620729565e-01 0.000000000000000000e+00
Cu 9.614648395092794120e-01 3.652938938173672795e-02 0.000000000000000000e+00
Cu 9.610899129179534262e-01 1.340124479602465002e-01 0.000000000000000000e+00
Cu 9.607991114551763800e-01 2.315538283989946322e-01 0.000000000000000000e+00
Cu 9.606159599358121692e-01 3.291643545013803740e-01 0.000000000000000000e+00
Cu 9.605748430967697704e-01 4.268651526473275504e-01 0.000000000000000000e+00
Cu 9.606446312976384405e-01 5.246979545628064345e-01 0.000000000000000000e+00
Cu 9.611665236324209438e-01 6.227097209528648092e-01 0.000000000000000000e+00
Cu 9.608847438371692640e-01 7.210402121733174852e-01 0.000000000000000000e+00
Cu 9.743324072253218837e-01 8.147246948022559554e-01 0.000000000000000000e+00
Cu 9.659431815991582626e-01 9.145777598804699648e-01 0.000000000000000000e+00
Cu 1.082305491527700614e+00 3.709754369430337539e-02 0.000000000000000000e+00
Cu 1.081958897012994747e+00 1.344248198270520389e-01 0.000000000000000000e+00
Cu 1.081698620023380020e+00 2.317910783665961538e-01 0.000000000000000000e+00
Cu 1.081557390145371222e+00 3.291873651902344489e-01 0.000000000000000000e+00
Cu 1.081565080645914723e+00 4.266048572014339291e-01 0.000000000000000000e+00
Cu 1.081848536082387069e+00 5.239926821202133267e-01 0.000000000000000000e+00
Cu 1.082387793544253185e+00 6.211905935432178172e-01 0.000000000000000000e+00
Cu 1.085523775082876119e+00 7.169131481656932925e-01 0.000000000000000000e+00
Cu 1.088030410228778111e+00 8.155165927118079860e-01 0.000000000000000000e+00
Cu 1.088743929137049316e+00 9.144314188593661852e-01 0.000000000000000000e+00
Cu 1.203456039594887672e+00 3.765373782890874682e-02 0.000000000000000000e+00
Cu 1.203136818124190821e+00 1.348060628104300607e-01 0.000000000000000000e+00
Cu 1.202925206400038860e+00 2.319625090885520935e-01 0.000000000000000000e+00
Cu 1.202853962538380950e+00 3.290870793177355647e-01 0.000000000000000000e+00
Cu 1.202991726280336682e+00 4.261353443024208376e-01 0.000000000000000000e+00
Cu 1.203427959364698374e+00 5.230301730880733135e-01 0.000000000000000000e+00
Cu 1.204657302695666399e+00 6.195413227585359062e-01 0.000000000000000000e+00
Cu 1.206190962787968335e+00 7.164997992279589223e-01 0.000000000000000000e+00
Cu 1.207557335636040508e+00 8.141616662084313338e-01 0.000000000000000000e+00
Cu 1.209104713998318203e+00 9.119243193845104622e-01 0.000000000000000000e+00
Cu 1.324932157768885288e+00 3.822085540955123123e-02 0.000000000000000000e+00
Cu 1.324650647063511544e+00 1.351920677989272568e-01 0.000000000000000000e+00
Cu 1.324516779997570337e+00 2.321210603296962882e-01 0.000000000000000000e+00
Cu 1.324556413046935832e+00 3.289495906506959555e-01 0.000000000000000000e+00
Cu 1.324816942872406589e+00 4.256399727834859759e-01 0.000000000000000000e+00
Cu 1.325423639809245380e+00 5.221691839628150866e-01 0.000000000000000000e+00
Cu 1.326316808785769741e+00 6.187594335050036198e-01 0.000000000000000000e+00
Cu 1.327314785731736002e+00 7.156430495733701047e-01 0.000000000000000000e+00
Cu 1.328434912284160996e+00 8.127904180998065664e-01 0.000000000000000000e+00
Cu 1.329692280505728075e+00 9.100934907321102108e-01 0.000000000000000000e+00
Cu 1.446720807100469353e+00 3.881284377157642046e-02 0.000000000000000000e+00
Cu 1.446503026666205560e+00 1.356145675604102929e-01 0.000000000000000000e+00
Cu 1.446490326707176477e+00 2.323211853358100598e-01 0.000000000000000000e+00
Cu 1.446666491653763043e+00 3.288682083141241663e-01 0.000000000000000000e+00
Cu 1.447034665690583255e+00 4.252535723381324906e-01 0.000000000000000000e+00
Cu 1.447570152202162008e+00 5.215826200368010035e-01 0.000000000000000000e+00
Cu 1.448211629525747224e+00 6.180205652716754816e-01 0.000000000000000000e+00
Cu 1.448945745849746336e+00 7.146691291284233971e-01 0.000000000000000000e+00
Cu 1.449808840033643964e+00 8.115419951421143363e-01 0.000000000000000000e+00
Cu 1.450803644460072039e+00 9.085947450956157745e-01 0.000000000000000000e+00
Cu 1.568774274484391995e+00 3.942001092848809035e-02 0.000000000000000000e+00
Cu 1.568672954540474285e+00 1.360822661768550379e-01 0.000000000000000000e+00
Cu 1.568844674632718705e+00 2.325907400742204811e-01 0.000000000000000000e+00
Cu 1.569200556118254264e+00 3.288851932650287413e-01 0.000000000000000000e+00
Cu 1.569646892313094622e+00 4.250083888543099708e-01 0.000000000000000000e+00
Cu 1.570100859605979560e+00 5.210892204492115765e-01 0.000000000000000000e+00
Cu 1.570535628721796417e+00 6.172788988714982272e-01 0.000000000000000000e+00
Cu 1.570998146037700272e+00 7.136874052759231146e-01 0.000000000000000000e+00
Cu 1.571571835451402332e+00 8.103535126919290121e-01 0.000000000000000000e+00
Cu 1.572336196298599553e+00 9.072228758461154952e-01 0.000000000000000000e+00
Cu 1.691008758361646436e+00 3.998768329573381547e-02 0.000000000000000000e+00
Cu 1.691121100832010393e+00 1.365550099551350038e-01 0.000000000000000000e+00
Cu 1.691582693753672650e+00 2.328937590706090521e-01 0.000000000000000000e+00
Cu 1.692197781629589226e+00 3.289615171756015699e-01 0.000000000000000000e+00
Cu 1.692771077135991176e+00 4.248339849040466687e-01 0.000000000000000000e+00
Cu 1.693165039666510552e+00 5.206548467293491411e-01 0.000000000000000000e+00
Cu 1.693364321764032177e+00 6.165832345337297626e-01 0.000000000000000000e+00
Cu 1.693478282597100870e+00 7.127537937502980148e-01 0.000000000000000000e+00
Cu 1.693681772296781629e+00 8.092329756574387911e-01 0.000000000000000000e+00
Cu 1.694159054941042131e+00 9.059715147744343833e-01 0.000000000000000000e+00
Cu 1.813301515936690755e+00 4.039061135694726329e-02 0.000000000000000000e+00
Cu 1.813802591606645365e+00 1.369157177182641905e-01 0.000000000000000000e+00
Cu 1.814727635853463639e+00 2.330991791516382472e-01 0.000000000000000000e+00
Cu 1.815728978790794867e+00 3.289603556396274442e-01 0.000000000000000000e+00
Cu 1.816496724359005333e+00 4.246502959908250441e-01 0.000000000000000000e+00
Cu 1.816847500549974681e+00 5.203107936879500794e-01 0.000000000000000000e+00
Cu 1.816768838963234600e+00 6.160444683314171277e-01 0.000000000000000000e+00
Cu 1.816420900516735326e+00 7.119885384372034443e-01 0.000000000000000000e+00
Cu 1.816095326992932080e+00 8.082863626348087971e-01 0.000000000000000000e+00
Cu 1.816127513363296142e+00 9.049485067382651016e-01 0.000000000000000000e+00
Cu 1.935472086270157321e+00 4.039483408208212334e-02 0.000000000000000000e+00
Cu 1.936688268819246161e+00 1.369325062136156901e-01 0.000000000000000000e+00
Cu 1.938354141118797891e+00 2.329399451607188087e-01 0.000000000000000000e+00
Cu 1.939860623391389094e+00 3.286467060357844971e-01 0.000000000000000000e+00
Cu 1.940819180474335548e+00 4.243564658923181798e-01 0.000000000000000000e+00
Cu 1.941140310660676827e+00 5.201275009331863819e-01 0.000000000000000000e+00
Cu 1.940811955056312765e+00 6.158705603953705809e-01 0.000000000000000000e+00
Cu 1.939901593152656201e+00 7.116408235917689451e-01 0.000000000000000000e+00
Cu 1.938781940185104968e+00 8.077363029014942297e-01 0.000000000000000000e+00
Cu 1.938051982991595867e+00 9.043794623300041025e-01 0.000000000000000000e+00
Cu 2.057209067676904368e+00 3.955662181281433681e-02 0.000000000000000000e+00
Cu 2.059830278837125661e+00 1.361539329781663310e-01 0.000000000000000000e+00
Cu 2.062631648266157747e+00 2.319379117153661241e-01 0.000000000000000000e+00
Cu 2.064575555974768495e+00 3.277450060197722448e-01 0.000000000000000000e+00
Cu 2.065584442773305440e+00 4.238856851892535138e-01 0.000000000000000000e+00
Cu 2.065887259119575603e+00 5.201463762780073052e-01 0.000000000000000000e+00
Cu 2.065471864206799513e+00 6.163139206364426359e-01 0.000000000000000000e+00
Cu 2.064086336726157711e+00 7.121717078287863600e-01 0.000000000000000000e+00
Cu 2.061790632979617843e+00 8.080240352832338546e-01 0.000000000000000000e+00
Cu 2.059616142947803930e+00 9.047010151900868324e-01 0.000000000000000000e+00
Cu 2.177830344103752314e+00 3.682352949681153703e-02 0.000000000000000000e+00
Cu 2.183613297297545941e+00 1.334995589267101712e-01 0.000000000000000000e+00
Cu 2.187653964581180777e+00 2.294882506049263082e-01 0.000000000000000000e+00
Cu 2.189576917540084100e+00 3.262578686867895761e-01 0.000000000000000000e+00
Cu 2.190570021204753637e+00 4.232585849739665118e-01 0.000000000000000000e+00
Cu 2.190862713284783769e+00 5.203219802857089737e-01 0.000000000000000000e+00
Cu 2.190443883286343763e+00 6.173503025402149458e-01 0.000000000000000000e+00
Cu 2.189061235957603380e+00 7.141692191939855716e-01 0.000000000000000000e+00
Cu 2.185504255763426329e+00 8.102219713639862153e-01 0.000000000000000000e+00
Cu 2.180136817908313152e+00 9.069630452316134184e-01 0.000000000000000000e+00
Cu 2.295399031996448347e+00 2.732796228008488662e-02 0.000000000000000000e+00
Cu 2.308619029561247871e+00 1.270825183818089787e-01 0.000000000000000000e+00
Cu 2.312538428139278235e+00 2.261940924218986126e-01 0.000000000000000000e+00
Cu 2.314634576445337100e+00 3.245807534305975572e-01 0.000000000000000000e+00
Cu 2.315637715011463982e+00 4.225916450260767121e-01 0.000000000000000000e+00
Cu 2.315924539367878676e+00 5.205126752110127430e-01 0.000000000000000000e+00
Cu 2.315485717780154662e+00 6.185600032929811087e-01 0.000000000000000000e+00
Cu 2.313926246961286459e+00 7.170131109311600470e-01 0.000000000000000000e+00
Cu 2.310495633977742269e+00 8.162056286197025834e-01 0.000000000000000000e+00
Cu 2.297695763953467196e+00 9.160511818471102075e-01 0.000000000000000000e+00
