200

Cu 0.000000000000000000e+00 6.126379407837436591e-02 0.000000000000000000e+00
Cu 0.000000000000000000e+00 1.547180461241126903e-01 0.000000000000000000e+00
Cu 0.000000000000000000e+00 2.464226937175507393e-01 0.000000000000000000e+00
Cu 0.000000000000000000e+00 3.373469192865720667e-01 0.000000000000000000e+00
Cu 0.000000000000000000e+00 4.279957109616493449e-01 0.000000000000000000e+00
Cu 0.000000000000000000e+00 5.186311106317170738e-01 0.000000000000000000e+00
Cu 0.000000000000000000e+00 6.094681148671423632e-01 0.000000000000000000e+00
Cu 0.000000000000000000e+00 7.007426644074885580e-01 0.000000000000000000e+00
Cu 0.000000000000000000e+00 7.929063259510760187e-01 0.000000000000000000e+00
Cu 0.000000000000000000e+00 8.868378461425996395e-01 0.000000000000000000e+00
Cu 1.384852266739619309e-01 6.743956686327738648e-02 0.000000000000000000e+00
Cu 1.370030173357630054e-01 1.568526555998597527e-01 0.000000000000000000e+00
Cu 1.369843112071525426e-01 2.473179052483691354e-01 0.000000000000000000e+00
Cu 1.369211738889669350e-01 3.377756064303674144e-01 0.000000000000000000e+00
Cu 1.368017479863418429e-01 4.281425337545783916e-01 0.000000000000000000e+00
Cu 1.366064080332115294e-01 5.185429092767097625e-01 0.000000000000000000e+00
Cu 1.363521097341630350e-01 6.091077827598759820e-01 0.000000000000000000e+00
Cu 1.360851646641002000e-01 6.999384370724369697e-01 0.000000000000000000e+00
Cu 1.358365986630579725e-01 7.909185015093957993e-01 0.000000000000000000e+00
Cu 1.370857218344793127e-01 8.809701166534033012e-01 0.000000000000000000e+00
Cu 2.762724714506399337e-01 7.032470172042978862e-02 0.000000000000000000e+00
Cu 2.750788256695078648e-01 1.594046953284515011e-01 0.000000000000000000e+00
Cu 2.744416856188522935e-01 2.488388518623013690e-01 0.000000000000000000e+00
Cu 2.741862904975410631e-01 3.386438699449737522e-01 0.000000000000000000e+00
Cu 2.738846240618005856e-01 4.285464990649435202e-01 0.000000000000000000e+00
Cu 2.734845459797247691e-01 5.185222587791830096e-01 0.000000000000000000e+00
Cu 2.730250042354566697e-01 6.086141989464410873e-01 0.000000000000000000e+00
Cu 2.726118019044007079e-01 6.987852551754980546e-01 0.000000000000000000e+00
Cu 2.726819719137718034e-01 7.887603453936499198e-01 0.000000000000000000e+00
Cu 2.734246309179533818e-01 8.785319054609795897e-01 0.000000000000000000e+00
Cu 4.139634751421913950e-01 7.228958706589176664e-02 0.000000000000000000e+00
Cu 4.130164943506603459e-01 1.613085373680439027e-01 0.000000000000000000e+00
Cu 4.123204280040456693e-01 2.504518404513879637e-01 0.000000000000000000e+00
Cu 4.118494294398424849e-01 3.397761663170170698e-01 0.000000000000000000e+00
Cu 4.113854158079398582e-01 4.291944330817965003e-01 0.000000000000000000e+00
Cu 4.107711456298996922e-01 5.186411287422856287e-01 0.000000000000000000e+00
Cu 4.100824138090233273e-01 6.081751149483830554e-01 0.000000000000000000e+00
Cu 4.095325461196154815e-01 6.977916099579818399e-01 0.000000000000000000e+00
Cu 4.093182561016096010e-01 7.874698973969099791e-01 0.000000000000000000e+00
Cu 4.095296333778898901e-01 8.772467310606768542e-01 0.000000000000000000e+00
Cu 5.516492250338936865e-01 7.380788166054882971e-02 0.000000000000000000e+00
Cu 5.509011501250850040e-01 1.628025599040136273e-01 0.000000000000000000e+00
Cu 5.503020612994546923e-01 2.518570182015968939e-01 0.000000000000000000e+00
Cu 5.498205346068925081e-01 3.409785906831004909e-01 0.000000000000000000e+00
Cu 5.493593861892900332e-01 4.301055463003110590e-01 0.000000000000000000e+00
Cu 5.485775116647888527e-01 5.190403685305940984e-01 0.000000000000000000e+00
Cu 5.475218831701645916e-01 6.079623014533106495e-01 0.000000000000000000e+00
Cu 5.465375382838748575e-01 6.972136269797702957e-01 0.000000000000000000e+00
Cu 5.457818703026864338e-01 7.868340307800919531e-01 0.000000000000000000e+00
Cu 5.453617462787743175e-01 8.767388301991718702e-01 0.000000000000000000e+00
Cu 6.893682328773895751e-01 7.501419999992205156e-02 0.000000000000000000e+00
Cu 6.887953212685818949e-01 1.639871348616926683e-01 0.000000000000000000e+00
Cu 6.883294675181912403e-01 2.530145356396742429e-01 0.000000000000000000e+00
Cu 6.879711402597368242e-01 3.420982191531947714e-01 0.000000000000000000e+00
Cu 6.875932296913432884e-01 4.311636877120745281e-01 0.000000000000000000e+00
Cu 6.871662373564413340e-01 5.200615255120415448e-01 0.000000000000000000e+00
Cu 6.854661544868875245e-01 6.081635175123126791e-01 0.000000000000000000e+00
Cu 6.834949118157046533e-01 6.968728659503719003e-01 0.000000000000000000e+00
Cu 6.819797415977089106e-01 7.868512736370707472e-01 0.000000000000000000e+00
Cu 6.807660138340529965e-01 8.771691158923121678e-01 0.000000000000000000e+00
Cu 8.271569338743108846e-01 7.595013434857177115e-02 0.000000000000000000e+00
Cu 8.267392358801846086e-01 1.648860573876589075e-01 0.000000000000000000e+00
Cu 8.264127236901303020e-01 2.538934932880758111e-01 0.000000000000000000e+00
Cu 8.261675540607730239e-01 3.429897652941109043e-01 0.000000000000000000e+00
Cu 8.260434026973875188e-01 4.321737539217731516e-01 0.000000000000000000e+00
Cu 8.256662099442828584e-01 5.213212027824137840e-01 0.000000000000000000e+00
Cu 8.257077902956231341e-01 6.102630422088454187e-01 0.000000000000000000e+00
Cu 8.200518380185402023e-01 6.961093154693693830e-01 0.000000000000000000e+00
Cu 8.168853696338299608e-01 7.871929893865592387e-01 0.000000000000000000e+00
Cu 8.159098208250852302e-01 8.793930238793068455e-01 0.000000000000000000e+00
Cu 9.650589063261258982e-01 7.663252716630097883e-02 0.000000000000000000e+00
Cu 9.647824907238832237e-01 1.655046774609551519e-01 0.000000000000000000e+00
Cu 9.645662187855383873e-01 2.544590296723912015e-01 0.000000000000000000e+00
Cu 9.644522389563825460e-01 3.435341709901036378e-01 0.000000000000000000e+00
Cu 9.643761350948397704e-01 4.327769774546436077e-01 0.000000000000000000e+00
Cu 9.646254722288251093e-01 5.222807530859525649e-01 0.000000000000000000e+00
Cu 9.637990174628613405e-01 6.121180355140540819e-01 0.000000000000000000e+00
Cu 9.670735633972910028e-01 7.029176162597167155e-01 0.000000000000000000e+00
Cu 9.387483045425034645e-01 7.836387855801763003e-01 0.000000000000000000e+00
Cu 9.574814112667274779e-01 8.774075286954032826e-01 0.000000000000000000e+00
Cu 1.103127849557997031e+00 7.708188528336436252e-02 0.000000000000000000e+00
Cu 1.102973796857374955e+00 1.658573062330326864e-01 0.000000000000000000e+00
Cu 1.102865762064686894e+00 2.547049336734362734e-01 0.000000000000000000e+00
Cu 1.102820728716007892e+00 3.436572886902367618e-01 0.000000000000000000e+00
Cu 1.102946487306407874e+00 4.327621681190954028e-01 0.000000000000000000e+00
Cu 1.102971408474775705e+00 5.221198335344576780e-01 0.000000000000000000e+00
Cu 1.104292187369606992e+00 6.118073667449406283e-01 0.000000000000000000e+00
Cu 1.101663612207960830e+00 7.025028439421617810e-01 0.000000000000000000e+00
Cu 1.130676769561648864e+00 7.828431806329294584e-01 0.000000000000000000e+00
Cu 1.112787443285099265e+00 8.766624711353533383e-01 0.000000000000000000e+00
Cu 1.241412924160882225e+00 7.733223822860893493e-02 0.000000000000000000e+00
Cu 1.241371509573090393e+00 1.659807323877185437e-01 0.000000000000000000e+00
Cu 1.241363028800452240e+00 2.546660256829029190e-01 0.000000000000000000e+00
Cu 1.241452174749512194e+00 3.433847496622972062e-01 0.000000000000000000e+00
Cu 1.241632743853605447e+00 4.321373266469195618e-01 0.000000000000000000e+00
Cu 1.242295971459904669e+00 5.208242489436866185e-01 0.000000000000000000e+00
Cu 1.242734744875597430e+00 6.093190228881382176e-01 0.000000000000000000e+00
Cu 1.249046222760700653e+00 6.947113954592292195e-01 0.000000000000000000e+00
Cu 1.252985993025606204e+00 7.853779701796957946e-01 0.000000000000000000e+00
Cu 1.254851891450392332e+00 8.772013599490872116e-01 0.000000000000000000e+00
Cu 1.379951172286110861e+00 7.743212346736513818e-02 0.000000000000000000e+00
Cu 1.380011522688646686e+00 1.659359122060771741e-01 0.000000000000000000e+00
Cu 1.380132767250540127e+00 2.544206756926187807e-01 0.000000000000000000e+00
Cu 1.380355725456210880e+00 3.428430162220469923e-01 0.000000000000000000e+00
Cu 1.380821520538950020e+00 4.311309888257929268e-01 0.000000000000000000e+00
Cu 1.381542743616011926e+00 5.191941465211435958e-01 0.000000000000000000e+00
Cu 1.383737581600815059e+00 6.064797093878542267e-01 0.000000000000000000e+00
Cu 1.386383833281701561e+00 6.944463868869902301e-01 0.000000000000000000e+00
Cu 1.388742529900606426e+00 7.837716502271412367e-01 0.000000000000000000e+00
Cu 1.390870868364980639e+00 8.734927058555737034e-01 0.000000000000000000e+00
Cu 1.518748740272132469e+00 7.743795468179875963e-02 0.000000000000000000e+00
Cu 1.518913092184613900e+00 1.657988828642588675e-01 0.000000000000000000e+00
Cu 1.519184091196654096e+00 2.540798116051479760e-01 0.000000000000000000e+00
Cu 1.519609847282654913e+00 3.422023168892722733e-01 0.000000000000000000e+00
Cu 1.520238796487890731e+00 4.301158442754961508e-01 0.000000000000000000e+00
Cu 1.521348166456361728e+00 5.177337289049425140e-01 0.000000000000000000e+00
Cu 1.522877324080864181e+00 6.053878807803275697e-01 0.000000000000000000e+00
Cu 1.524527067245886602e+00 6.935389617837303122e-01 0.000000000000000000e+00
Cu 1.526151774450684506e+00 7.822485868752494520e-01 0.000000000000000000e+00
Cu 1.527597107051249292e+00 8.713565074983004033e-01 0.000000000000000000e+00
Cu 1.657775813115333952e+00 7.739736857609411103e-02 0.000000000000000000e+00
Cu 1.658057061507083541e+00 1.656419916323523533e-01 0.000000000000000000e+00
Cu 1.658521681352888910e+00 2.537473070864048053e-01 0.000000000000000000e+00
Cu 1.659147201001982097e+00 3.416308531589694053e-01 0.000000000000000000e+00
Cu 1.659959022795631123e+00 4.292758125546808912e-01 0.000000000000000000e+00
Cu 1.660947152828626150e+00 5.168157383782241432e-01 0.000000000000000000e+00
Cu 1.662023143824882920e+00 6.045093771863716547e-01 0.000000000000000000e+00
Cu 1.663108560995605112e+00 6.925603153662414080e-01 0.000000000000000000e+00
Cu 1.664164694877307893e+00 7.810291556342751074e-01 0.000000000000000000e+00
Cu 1.665117853718466989e+00 8.698252035778948343e-01 0.000000000000000000e+00
Cu 1.796957840757157809e+00 7.732537393123641023e-02 0.000000000000000000e+00
Cu 1.797401335118560928e+00 1.655022626672368879e-01 0.000000000000000000e+00
Cu 1.798115443396547830e+00 2.534846925097542503e-01 0.000000000000000000e+00
Cu 1.798983953473146213e+00 3.411939914665392259e-01 0.000000000000000000e+00
Cu 1.799890799609181524e+00 4.286819602513363137e-01 0.000000000000000000e+00
Cu 1.800728626832663881e+00 5.161185343608257758e-01 0.000000000000000000e+00
Cu 1.801439134073233195e+00 6.037175290654668292e-01 0.000000000000000000e+00
Cu 1.802039286173330979e+00 6.916462662045870236e-01 0.000000000000000000e+00
Cu 1.802593460731975128e+00 7.799641385440407859e-01 0.000000000000000000e+00
Cu 1.803170996143439897e+00 8.685805148251215524e-01 0.000000000000000000e+00
Cu 1.936176458409609724e+00 7.717370570995377155e-02 0.000000000000000000e+00
Cu 1.936879130403437843e+00 1.653506673732931809e-01 0.000000000000000000e+00
Cu 1.937955771438132135e+00 2.532653193992018270e-01 0.000000000000000000e+00
Cu 1.939140208116399089e+00 3.408597736644400356e-01 0.000000000000000000e+00
Cu 1.940179553312991301e+00 4.282298409178736387e-01 0.000000000000000000e+00
Cu 1.940893843340931069e+00 5.155554399792419140e-01 0.000000000000000000e+00
Cu 1.941240356092352348e+00 6.030352637497050639e-01 0.000000000000000000e+00
Cu 1.941322750536889963e+00 6.908387451617002961e-01 0.000000000000000000e+00
Cu 1.941338436557838998e+00 7.790463768706680225e-01 0.000000000000000000e+00
Cu 1.941516098504638244e+00 8.675768420228852085e-01 0.000000000000000000e+00
Cu 2.075258704531167453e+00 7.679835871215962007e-02 0.000000000000000000e+00
Cu 2.076413635228225640e+00 1.650592564445199917e-01 0.000000000000000000e+00
Cu 2.078054270652050395e+00 2.529493569054549473e-01 0.000000000000000000e+00
Cu 2.079699132814414764e+00 3.404724099518811053e-01 0.000000000000000000e+00
Cu 2.080948313991254572e+00 4.278108617740977726e-01 0.000000000000000000e+00
Cu 2.081568822554289877e+00 5.151353874166968438e-01 0.000000000000000000e+00
Cu 2.081525348134338316e+00 6.025656492408906217e-01 0.000000000000000000e+00
Cu 2.080986533186999221e+00 6.902622553359368807e-01 0.000000000000000000e+00
Cu 2.080302976881016619e+00 7.783900814118226430e-01 0.000000000000000000e+00
Cu 2.079921960552936433e+00 8.669296715352751148e-01 0.000000000000000000e+00
Cu 2.213940540005565172e+00 7.590985261533578221e-02 0.000000000000000000e+00
Cu 2.215928655609295639e+00 1.643590863529253154e-01 0.000000000000000000e+00
Cu 2.218486603194850915e+00 2.522317484039776625e-01 0.000000000000000000e+00
Cu 2.220762087527199391e+00 3.397540115514866566e-01 0.000000000000000000e+00
Cu 2.222232747587562507e+00 4.272931979390249824e-01 0.000000000000000000e+00
Cu 2.222787187571555023e+00 5.149273904510658362e-01 0.000000000000000000e+00
Cu 2.222393589918198131e+00 6.025383615564402495e-01 0.000000000000000000e+00
Cu 2.221104166794466650e+00 6.901957283960755696e-01 0.000000000000000000e+00
Cu 2.219397177052180314e+00 7.782514598989970223e-01 0.000000000000000000e+00
Cu 2.218095662247762334e+00 8.669131587698525321e-01 0.000000000000000000e+00
Cu 2.351735150749995285e+00 7.394449000366282165e-02 0.000000000000000000e+00
Cu 2.355408456090977154e+00 1.627203229773276361e-01 0.000000000000000000e+00
Cu 2.359471481908137935e+00 2.505284836298404261e-01 0.000000000000000000e+00
Cu 2.362378879542556209e+00 3.383353709599909998e-01 0.000000000000000000e+00
Cu 2.363908727434478330e+00 4.265834888113220758e-01 0.000000000000000000e+00
Cu 2.364421838437670065e+00 5.149752196253903902e-01 0.000000000000000000e+00
Cu 2.363887109037401846e+00 6.032812616422736918e-01 0.000000000000000000e+00
Cu 2.361886609605848175e+00 6.911968089946592952e-01 0.000000000000000000e+00
Cu 2.358594758937661684e+00 7.791465700062479849e-01 0.000000000000000000e+00
Cu 2.355534690334026848e+00 8.680801239989073270e-01 0.000000000000000000e+00
Cu 2.487449426781148887e+00 6.955109270871927263e-02 0.000000000000000000e+00
Cu 2.495230376988799570e+00 1.588255785355329741e-01 0.000000000000000000e+00
Cu 2.501364845572381590e+00 2.469270915547240874e-01 0.000000000000000000e+00
Cu 2.504205091064044542e+00 3.361879258166107776e-01 0.000000000000000000e+00
Cu 2.505797603053482092e+00 4.256743743223911358e-01 0.000000000000000000e+00
Cu 2.506288092548837998e+00 5.152367554972442365e-01 0.000000000000000000e+00
Cu 2.505648661641568076e+00 6.047835092630573506e-01 0.000000000000000000e+00
Cu 2.503675216830689276e+00 6.941486410548084462e-01 0.000000000000000000e+00
Cu 2.498268953354834565e+00 7.823850920127344288e-01 0.000000000000000000e+00
Cu 2.491041150708564800e+00 8.717826314214013328e-01 0.000000000000000000e+00
Cu 2.616593203699379533e+00 5.591666906764718864e-02 0.000000000000000000e+00
Cu 2.637413434260309497e+00 1.495313411406982151e-01 0.000000000000000000e+00
Cu 2.642837469458708455e+00 2.422949479253855842e-01 0.000000000000000000e+00
Cu 2.646174813836338124e+00 3.338038024140022597e-01 0.000000000000000000e+00
Cu 2.647755526670568571e+00 4.247173272036606773e-01 0.000000000000000000e+00
Cu 2.648235320602987830e+00 5.155076870991716076e-01 0.000000000000000000e+00
Cu 2.647588721090130992e+00 6.065009081936014734e-01 0.000000000000000000e+00
Cu 2.645112937890833571e+00 6.981550273927388250e-01 0.000000000000000000e+00
Cu 2.640422779390938501e+00 7.910856410028005437e-01 0.000000000000000000e+00
Cu 2.620160535491389719e+00 8.848875552143196099e-01 0.000000000000000000e+00
