200

Cu 0.000000000000000000e+00 7.324159604404731783e-04 0.000000000000000000e+00
Cu 0.000000000000000000e+00 1.058296851362716673e-01 0.000000000000000000e+00
Cu 0.000000000000000000e+00 2.109156414808705249e-01 0.000000000000000000e+00
Cu 0.000000000000000000e+00 3.160022445530175639e-01 0.000000000000000000e+00
Cu 0.000000000000000000e+00 4.210933071694982766e-01 0.000000000000000000e+00
Cu 0.000000000000000000e+00 5.261879666794821997e-01 0.000000000000000000e+00
Cu 0.000000000000000000e+00 6.312842866518135754e-01 0.000000000000000000e+00
Cu 0.000000000000000000e+00 7.363807900306185150e-01 0.000000000000000000e+00
Cu 0.000000000000000000e+00 8.414798623469513794e-01 0.000000000000000000e+00
Cu 0.000000000000000000e+00 9.465910198963204403e-01 0.000000000000000000e+00
Cu 1.058342948693460212e-01 8.726361294818675953e-04 0.000000000000000000e+00
Cu 1.057732612859012961e-01 1.058809301467583119e-01 0.000000000000000000e+00
Cu 1.057560166979153449e-01 2.109391287440819662e-01 0.000000000000000000e+00
Cu 1.057445441708654982e-01 3.160137692927046382e-01 0.000000000000000000e+00
Cu 1.057361110949072980e-01 4.210965561555233272e-01 0.000000000000000000e+00
Cu 1.057306345097583922e-01 5.261840585251956748e-01 0.000000000000000000e+00
Cu 1.057283924695933686e-01 6.312727221764086183e-01 0.000000000000000000e+00
Cu 1.057300525569267596e-01 7.363583197491009313e-01 0.000000000000000000e+00
Cu 1.057387087058108133e-01 8.414318873826809320e-01 0.000000000000000000e+00
Cu 1.057901539657703921e-01 9.464610511632168821e-01 0.000000000000000000e+00
Cu 2.116636674968674081e-01 9.639024344194607871e-04 0.000000000000000000e+00
Cu 2.115889705415796573e-01 1.059640062503085511e-01 0.000000000000000000e+00
Cu 2.115399019470182163e-01 2.109906792782772766e-01 0.000000000000000000e+00
Cu 2.115113790032524255e-01 3.160429242047218534e-01 0.000000000000000000e+00
Cu 2.114920006415827169e-01 4.211080953282534400e-01 0.000000000000000000e+00
Cu 2.114802282350040363e-01 5.261795918432571328e-01 0.000000000000000000e+00
Cu 2.114772533482268957e-01 6.312517444214403861e-01 0.000000000000000000e+00
Cu 2.114857032006635107e-01 7.363161060459681995e-01 0.000000000000000000e+00
Cu 2.115160339086635810e-01 8.413597146125655346e-01 0.000000000000000000e+00
Cu 2.115731193441768576e-01 9.463818046018109831e-01 0.000000000000000000e+00
Cu 3.175153550124860113e-01 1.067458402712903901e-03 0.000000000000000000e+00
Cu 3.174268662711536293e-01 1.060518509811564786e-01 0.000000000000000000e+00
Cu 3.173609204054116950e-01 2.110606360457386588e-01 0.000000000000000000e+00
Cu 3.173154067991907912e-01 3.160888807175269988e-01 0.000000000000000000e+00
Cu 3.172842715306371519e-01 4.211292998044250391e-01 0.000000000000000000e+00
Cu 3.172645587104464537e-01 5.261756360173915903e-01 0.000000000000000000e+00
Cu 3.172603711039154173e-01 6.312233473841371012e-01 0.000000000000000000e+00
Cu 3.172763443262821559e-01 7.362639672477719888e-01 0.000000000000000000e+00
Cu 3.173134143074879399e-01 8.412897702983760384e-01 0.000000000000000000e+00
Cu 3.173728711607717301e-01 9.462981385578230764e-01 0.000000000000000000e+00
Cu 4.234082549959571895e-01 1.191068520505621882e-03 0.000000000000000000e+00
Cu 4.233022098272428702e-01 1.061531214938948309e-01 0.000000000000000000e+00
Cu 4.232222326146483082e-01 2.111411477012201388e-01 0.000000000000000000e+00
Cu 4.231659707929472658e-01 3.161477866259514435e-01 0.000000000000000000e+00
Cu 4.231283970061167077e-01 4.211632413278562637e-01 0.000000000000000000e+00
Cu 4.231008161945773449e-01 5.261762621386641969e-01 0.000000000000000000e+00
Cu 4.230885667739168743e-01 6.311905393753953764e-01 0.000000000000000000e+00
Cu 4.231045067308044083e-01 7.362078205661033437e-01 0.000000000000000000e+00
Cu 4.231450579755222652e-01 8.412175354550469608e-01 0.000000000000000000e+00
Cu 4.232046815260608330e-01 9.462079529881116668e-01 0.000000000000000000e+00
Cu 5.293588967515695520e-01 1.340146439835362968e-03 0.000000000000000000e+00
Cu 5.292312989779733856e-01 1.062716893452613359e-01 0.000000000000000000e+00
Cu 5.291354590239024658e-01 2.112326594424767112e-01 0.000000000000000000e+00
Cu 5.290700090166888803e-01 3.162149585212620240e-01 0.000000000000000000e+00
Cu 5.290314916123822764e-01 4.212079466318628396e-01 0.000000000000000000e+00
Cu 5.290112277284946263e-01 5.261958231218192283e-01 0.000000000000000000e+00
Cu 5.289817592700033488e-01 6.311568285709494575e-01 0.000000000000000000e+00
Cu 5.289737415167166112e-01 7.361391016007278187e-01 0.000000000000000000e+00
Cu 5.290177288680839585e-01 8.411429438979376449e-01 0.000000000000000000e+00
Cu 5.290835241713836012e-01 9.461237611428348071e-01 0.000000000000000000e+00
Cu 6.353846052497190700e-01 1.519221949721136873e-03 0.000000000000000000e+00
Cu 6.352309164980249889e-01 1.064114707204625865e-01 0.000000000000000000e+00
Cu 6.351153424313524809e-01 2.113368698463853335e-01 0.000000000000000000e+00
Cu 6.350378135965917270e-01 3.162874553863366800e-01 0.000000000000000000e+00
Cu 6.349978898586308151e-01 4.212543736205922595e-01 0.000000000000000000e+00
Cu 6.349902341984126064e-01 5.262253852024898482e-01 0.000000000000000000e+00
Cu 6.350014345851662245e-01 6.311764525002853121e-01 0.000000000000000000e+00
Cu 6.349071949136648740e-01 7.360292410719042611e-01 0.000000000000000000e+00
Cu 6.348791065896037811e-01 8.410550223290794714e-01 0.000000000000000000e+00
Cu 6.350554310836112881e-01 9.460517794641858380e-01 0.000000000000000000e+00
Cu 7.415035345455391891e-01 1.733788481451468749e-03 0.000000000000000000e+00
Cu 7.413188393027267953e-01 1.065774199345090323e-01 0.000000000000000000e+00
Cu 7.411791718073620361e-01 2.114573342260523681e-01 0.000000000000000000e+00
Cu 7.410853393817745660e-01 3.163652021214515830e-01 0.000000000000000000e+00
Cu 7.410381827791043818e-01 4.212935784602583889e-01 0.000000000000000000e+00
Cu 7.410387197050960495e-01 5.262364876387606305e-01 0.000000000000000000e+00
Cu 7.410757760366901703e-01 6.311892038175531683e-01 0.000000000000000000e+00
Cu 7.411616614657791091e-01 7.361415426905355552e-01 0.000000000000000000e+00
Cu 7.405322969823617818e-01 8.408006526291924576e-01 0.000000000000000000e+00
Cu 7.412636731826389713e-01 9.458061499450445275e-01 0.000000000000000000e+00
Cu 8.477342069400708446e-01 1.990364328524402669e-03 0.000000000000000000e+00
Cu 8.475137686814604443e-01 1.067757873425403958e-01 0.000000000000000000e+00
Cu 8.473465455495646781e-01 2.115992775823488659e-01 0.000000000000000000e+00
Cu 8.472334990502391472e-01 3.164509991931170885e-01 0.000000000000000000e+00
Cu 8.471763936620345659e-01 4.213228917588465738e-01 0.000000000000000000e+00
Cu 8.471759837734598175e-01 5.262088435371705675e-01 0.000000000000000000e+00
Cu 8.472434689358432358e-01 6.311038745760225721e-01 0.000000000000000000e+00
Cu 8.473652833213892732e-01 7.359942140788374720e-01 0.000000000000000000e+00
Cu 8.483144695021069825e-01 8.405723284713305654e-01 0.000000000000000000e+00
Cu 8.479345490456691170e-01 9.455020217443670383e-01 0.000000000000000000e+00
Cu 9.540946989410400425e-01 2.296054232716721825e-03 0.000000000000000000e+00
Cu 9.538349387752536046e-01 1.070137548099619612e-01 0.000000000000000000e+00
Cu 9.536388385411541657e-01 2.117690204142674559e-01 0.000000000000000000e+00
Cu 9.535070525937979768e-01 3.165492384606541365e-01 0.000000000000000000e+00
Cu 9.534419705225758435e-01 4.213439068314193681e-01 0.000000000000000000e+00
Cu 9.534506051659188408e-01 5.261410451709505054e-01 0.000000000000000000e+00
Cu 9.535467176470027173e-01 6.309169645692744854e-01 0.000000000000000000e+00
Cu 9.538549599865924211e-01 7.355926427607656359e-01 0.000000000000000000e+00
Cu 9.541905832244513830e-01 8.404482247382663029e-01 0.000000000000000000e+00
Cu 9.544061483283519109e-01 9.452705175747087019e-01 0.000000000000000000e+00
Cu 1.060601475373770031e+00 2.657668747211377157e-03 0.000000000000000000e+00
Cu 1.060301412190668868e+00 1.072987864780125394e-01 0.000000000000000000e+00
Cu 1.060078728355825506e+00 2.119735967677217892e-01 0.000000000000000000e+00
Cu 1.059932430208896825e+00 3.166657887445108455e-01 0.000000000000000000e+00
Cu 1.059865812628459247e+00 4.213626326074024764e-01 0.000000000000000000e+00
Cu 1.059887964837543661e+00 5.260509594825771851e-01 0.000000000000000000e+00
Cu 1.060026345960599192e+00 6.307138702005147257e-01 0.000000000000000000e+00
Cu 1.060247037875109211e+00 7.354050956248022741e-01 0.000000000000000000e+00
Cu 1.060516688346476499e+00 8.401235662137638283e-01 0.000000000000000000e+00
Cu 1.060870612867721885e+00 9.448115491741599925e-01 0.000000000000000000e+00
Cu 1.167267806854520140e+00 3.080217155061510184e-03 0.000000000000000000e+00
Cu 1.166931040504132433e+00 1.076374238858086169e-01 0.000000000000000000e+00
Cu 1.166689264624768185e+00 2.122202024307031365e-01 0.000000000000000000e+00
Cu 1.166536732543974386e+00 3.168085366057401542e-01 0.000000000000000000e+00
Cu 1.166472916141784166e+00 4.213911204758892248e-01 0.000000000000000000e+00
Cu 1.166502954128207481e+00 5.259647219511245364e-01 0.000000000000000000e+00
Cu 1.166620415550022383e+00 6.305456291441848826e-01 0.000000000000000000e+00
Cu 1.166814383895087959e+00 7.351440547038323725e-01 0.000000000000000000e+00
Cu 1.167094070087334012e+00 8.397468809807433487e-01 0.000000000000000000e+00
Cu 1.167474348635711090e+00 9.443285961628680170e-01 0.000000000000000000e+00
Cu 1.274101988740604874e+00 3.564449555275706841e-03 0.000000000000000000e+00
Cu 1.273739198259712602e+00 1.080328997369549709e-01 0.000000000000000000e+00
Cu 1.273493104708776746e+00 2.125140303775416295e-01 0.000000000000000000e+00
Cu 1.273347419888766208e+00 3.169850036644801250e-01 0.000000000000000000e+00
Cu 1.273290531502317746e+00 4.214396106292689348e-01 0.000000000000000000e+00
Cu 1.273313244839791025e+00 5.258888765790846742e-01 0.000000000000000000e+00
Cu 1.273410721523737354e+00 6.303501652327313520e-01 0.000000000000000000e+00
Cu 1.273589451551051743e+00 7.348316827003101848e-01 0.000000000000000000e+00
Cu 1.273865993066503055e+00 8.393262400313894478e-01 0.000000000000000000e+00
Cu 1.274257667078766865e+00 9.438133993829791457e-01 0.000000000000000000e+00
Cu 1.381105858758718163e+00 4.103300893252336511e-03 0.000000000000000000e+00
Cu 1.380737985270898527e+00 1.084810547773170930e-01 0.000000000000000000e+00
Cu 1.380512504099225879e+00 2.128531548030072884e-01 0.000000000000000000e+00
Cu 1.380395462328033895e+00 3.171953473419729108e-01 0.000000000000000000e+00
Cu 1.380355610340596506e+00 4.215075900533828968e-01 0.000000000000000000e+00
Cu 1.380371615008033626e+00 5.258095676049749922e-01 0.000000000000000000e+00
Cu 1.380441896709329042e+00 6.301275547974233282e-01 0.000000000000000000e+00
Cu 1.380585948551457109e+00 7.344789638455239134e-01 0.000000000000000000e+00
Cu 1.380834892169790606e+00 8.388628033306420040e-01 0.000000000000000000e+00
Cu 1.381222425736913229e+00 9.432556662324935726e-01 0.000000000000000000e+00
Cu 1.488273951197830680e+00 4.677367038291676236e-03 0.000000000000000000e+00
Cu 1.487936870396109112e+00 1.089647211191846488e-01 0.000000000000000000e+00
Cu 1.487771115855091919e+00 2.132206090129415144e-01 0.000000000000000000e+00
Cu 1.487716716449444920e+00 3.174240851479635528e-01 0.000000000000000000e+00
Cu 1.487714996474556850e+00 4.215841479847690643e-01 0.000000000000000000e+00
Cu 1.487726634151446570e+00 5.257291030833771694e-01 0.000000000000000000e+00
Cu 1.487751032067847756e+00 6.298932275133253267e-01 0.000000000000000000e+00
Cu 1.487826237781177285e+00 7.341040484982587211e-01 0.000000000000000000e+00
Cu 1.488009745984509635e+00 8.383698056762544093e-01 0.000000000000000000e+00
Cu 1.488360803913364228e+00 9.426691829636002495e-01 0.000000000000000000e+00
Cu 1.595592495779915243e+00 5.248974033483490287e-03 0.000000000000000000e+00
Cu 1.595346051688025568e+00 1.094466705403928930e-01 0.000000000000000000e+00
Cu 1.595298512669542701e+00 2.135746935149700210e-01 0.000000000000000000e+00
Cu 1.595349574943577542e+00 3.176321162735931125e-01 0.000000000000000000e+00
Cu 1.595406767754702360e+00 4.216512086861134434e-01 0.000000000000000000e+00
Cu 1.595415492579725703e+00 5.256618274707663963e-01 0.000000000000000000e+00
Cu 1.595375324037922704e+00 6.296838379603412195e-01 0.000000000000000000e+00
Cu 1.595339917150130127e+00 7.337468151564838781e-01 0.000000000000000000e+00
Cu 1.595400744315776054e+00 8.378824922510942352e-01 0.000000000000000000e+00
Cu 1.595657320255818412e+00 9.420892853491753538e-01 0.000000000000000000e+00
Cu 1.703035600880407952e+00 5.751428156169791778e-03 0.000000000000000000e+00
Cu 1.702985217282999120e+00 1.098572527569568608e-01 0.000000000000000000e+00
Cu 1.703139611038998691e+00 2.138361112647869655e-01 0.000000000000000000e+00
Cu 1.703327579411731962e+00 3.177523778737596505e-01 0.000000000000000000e+00
Cu 1.703438655161645610e+00 4.216825946710276996e-01 0.000000000000000000e+00
Cu 1.703445387662700705e+00 5.256317311837720441e-01 0.000000000000000000e+00
Cu 1.703347397335912339e+00 6.295640850370802788e-01 0.000000000000000000e+00
Cu 1.703171368175121936e+00 7.334844353922922444e-01 0.000000000000000000e+00
Cu 1.703027030305471090e+00 8.374689071813335994e-01 0.000000000000000000e+00
Cu 1.703084935519760146e+00 9.415812329120738511e-01 0.000000000000000000e+00
Cu 1.810552684365021259e+00 6.056452740713624480e-03 0.000000000000000000e+00
Cu 1.810907045985915564e+00 1.100624726382216784e-01 0.000000000000000000e+00
Cu 1.811362130162802231e+00 2.138697328551513177e-01 0.000000000000000000e+00
Cu 1.811652598426316763e+00 3.177130235769350941e-01 0.000000000000000000e+00
Cu 1.811770296644909184e+00 4.216630883676842911e-01 0.000000000000000000e+00
Cu 1.811775712575608877e+00 5.256523051192260043e-01 0.000000000000000000e+00
Cu 1.811668511974600104e+00 6.296039817324146082e-01 0.000000000000000000e+00
Cu 1.811387554860771631e+00 7.334502895684624768e-01 0.000000000000000000e+00
Cu 1.810940410995873329e+00 8.372615626524712029e-01 0.000000000000000000e+00
Cu 1.810591998049348117e+00 9.412719835746847785e-01 0.000000000000000000e+00
Cu 1.918043992503900341e+00 5.868597699304041460e-03 0.000000000000000000e+00
Cu 1.919255507612013023e+00 1.097562874960880258e-01 0.000000000000000000e+00
Cu 1.919981135835197028e+00 2.135306374090407966e-01 0.000000000000000000e+00
Cu 1.920246326581229068e+00 3.175237234529380559e-01 0.000000000000000000e+00
Cu 1.920338870687502419e+00 4.216051293540953870e-01 0.000000000000000000e+00
Cu 1.920343466322714132e+00 5.257096113253084679e-01 0.000000000000000000e+00
Cu 1.920259839163089399e+00 6.297923685875310706e-01 0.000000000000000000e+00
Cu 1.920002751205260427e+00 7.337879000888504200e-01 0.000000000000000000e+00
Cu 1.919283924060606550e+00 8.375652839974092601e-01 0.000000000000000000e+00
Cu 1.918077613332251907e+00 9.414558657606053593e-01 0.000000000000000000e+00
Cu 2.025330880725505267e+00 3.940278597212936405e-03 0.000000000000000000e+00
Cu 2.028062188937017396e+00 1.085195304954106044e-01 0.000000000000000000e+00
Cu 2.028765029838658140e+00 2.129700333965361403e-01 0.000000000000000000e+00
Cu 2.029028615548743808e+00 3.172912286584610442e-01 0.000000000000000000e+00
Cu 2.029114919923632687e+00 4.215406791439293421e-01 0.000000000000000000e+00
Cu 2.029119010038850313e+00 5.257703395576960315e-01 0.000000000000000000e+00
Cu 2.029040682920344008e+00 6.300211834442076553e-01 0.000000000000000000e+00
Cu 2.028784480752221953e+00 7.343448611836489448e-01 0.000000000000000000e+00
Cu 2.028088079304892322e+00 8.387983014077174948e-01 0.000000000000000000e+00
Cu 2.025362025978574732e+00 9.433799636023382229e-01 0.000000000000000000e+00
