200

Cu 0.000000000000000000e+00 6.800516872389982675e-03 0.000000000000000000e+00
Cu 0.000000000000000000e+00 1.114572105758914883e-01 0.000000000000000000e+00
Cu 0.000000000000000000e+00 2.162016314196446021e-01 0.000000000000000000e+00
Cu 0.000000000000000000e+00 3.210930979315459455e-01 0.000000000000000000e+00
Cu 0.000000000000000000e+00 4.261488413854297996e-01 0.000000000000000000e+00
Cu 0.000000000000000000e+00 5.313642166745433659e-01 0.000000000000000000e+00
Cu 0.000000000000000000e+00 6.367303386451259595e-01 0.000000000000000000e+00
Cu 0.000000000000000000e+00 7.422396770945325351e-01 0.000000000000000000e+00
Cu 0.000000000000000000e+00 8.478792152481977595e-01 0.000000000000000000e+00
Cu 0.000000000000000000e+00 9.536152037380284385e-01 0.000000000000000000e+00
Cu 1.074585007638774736e-01 7.461635552392667514e-03 0.000000000000000000e+00
Cu 1.068807475647506333e-01 1.117926537934023357e-01 0.000000000000000000e+00
Cu 1.064524503998697386e-01 2.164579821221297995e-01 0.000000000000000000e+00
Cu 1.060421026458091692e-01 3.213386668113111244e-01 0.000000000000000000e+00
Cu 1.056419205769548869e-01 4.264024135744758914e-01 0.000000000000000000e+00
Cu 1.052479352515452021e-01 5.316320783572980879e-01 0.000000000000000000e+00
Cu 1.048537006900658181e-01 6.370137389002091810e-01 0.000000000000000000e+00
Cu 1.044478564255850173e-01 7.425429800164775607e-01 0.000000000000000000e+00
Cu 1.040097450171776072e-01 8.482461768697612259e-01 0.000000000000000000e+00
Cu 1.034043179873600504e-01 9.542537632027209282e-01 0.000000000000000000e+00
Cu 2.148380912471681559e-01 8.319030242018878724e-03 0.000000000000000000e+00
Cu 2.138391115736543724e-01 1.126666876448729621e-01 0.000000000000000000e+00
Cu 2.129158128228979263e-01 2.172705333541119499e-01 0.000000000000000000e+00
Cu 2.120661665222096370e-01 3.221366303877817305e-01 0.000000000000000000e+00
Cu 2.112541243269235591e-01 4.272162780873186017e-01 0.000000000000000000e+00
Cu 2.104656646255116947e-01 5.324762897762987945e-01 0.000000000000000000e+00
Cu 2.096827293469102349e-01 6.378942609659722374e-01 0.000000000000000000e+00
Cu 2.088725238897510550e-01 7.434658540511859259e-01 0.000000000000000000e+00
Cu 2.079685067014377386e-01 8.492227721303373666e-01 0.000000000000000000e+00
Cu 2.069270112912589554e-01 9.551797736794056526e-01 0.000000000000000000e+00
Cu 3.221431158948996343e-01 9.589966363306275804e-03 0.000000000000000000e+00
Cu 3.207191712949644113e-01 1.139647249211649394e-01 0.000000000000000000e+00
Cu 3.193463117328109724e-01 2.185883548592893466e-01 0.000000000000000000e+00
Cu 3.180441638907063884e-01 3.234620283041384492e-01 0.000000000000000000e+00
Cu 3.168109348057855934e-01 4.285663423658453985e-01 0.000000000000000000e+00
Cu 3.156303827945197149e-01 5.338653510969736393e-01 0.000000000000000000e+00
Cu 3.144762443973765365e-01 6.393277792234858259e-01 0.000000000000000000e+00
Cu 3.132981846424087169e-01 7.449335459220638445e-01 0.000000000000000000e+00
Cu 3.120324701274856394e-01 8.506711315973697340e-01 0.000000000000000000e+00
Cu 3.106185050277663340e-01 9.565526375857985597e-01 0.000000000000000000e+00
Cu 4.293625561467490082e-01 1.129105955714610442e-02 0.000000000000000000e+00
Cu 4.274991726957650395e-01 1.157005986364059991e-01 0.000000000000000000e+00
Cu 4.256804424952290722e-01 2.203628059059745958e-01 0.000000000000000000e+00
Cu 4.239378519975936510e-01 3.252738154951781979e-01 0.000000000000000000e+00
Cu 4.222873700467422720e-01 4.304118162206790887e-01 0.000000000000000000e+00
Cu 4.207280122781186238e-01 5.357445184848165232e-01 0.000000000000000000e+00
Cu 4.192386566558884975e-01 6.412347295200784281e-01 0.000000000000000000e+00
Cu 4.177705859566219204e-01 7.468436243768599159e-01 0.000000000000000000e+00
Cu 4.162419484088096255e-01 8.525370945619430429e-01 0.000000000000000000e+00
Cu 4.145500290790394837e-01 9.583110631386108080e-01 0.000000000000000000e+00
Cu 5.364892090786619328e-01 1.343142559110589891e-02 0.000000000000000000e+00
Cu 5.341656953909089678e-01 1.178725517082789553e-01 0.000000000000000000e+00
Cu 5.318882633503052570e-01 2.225764280265158379e-01 0.000000000000000000e+00
Cu 5.297106767871224697e-01 3.275323171013942991e-01 0.000000000000000000e+00
Cu 5.276646205516358767e-01 4.327043106293905206e-01 0.000000000000000000e+00
Cu 5.257597689289060794e-01 5.380451568535793427e-01 0.000000000000000000e+00
Cu 5.239887152509785651e-01 6.435161708464414154e-01 0.000000000000000000e+00
Cu 5.223108840048014123e-01 7.490812154230027664e-01 0.000000000000000000e+00
Cu 5.206319143080297973e-01 8.547038050901709649e-01 0.000000000000000000e+00
Cu 5.188002866267290569e-01 9.603434321292355635e-01 0.000000000000000000e+00
Cu 6.435287921176966464e-01 1.602973347947253893e-02 0.000000000000000000e+00
Cu 6.407129898168082427e-01 1.204887515141825627e-01 0.000000000000000000e+00
Cu 6.379505934822037316e-01 2.252176947071708180e-01 0.000000000000000000e+00
Cu 6.353376724673519549e-01 3.302066612939268953e-01 0.000000000000000000e+00
Cu 6.329306135506224118e-01 4.353943489173409676e-01 0.000000000000000000e+00
Cu 6.307491347415713490e-01 5.407024440096561690e-01 0.000000000000000000e+00
Cu 6.287698821325713450e-01 6.460654076568574933e-01 0.000000000000000000e+00
Cu 6.269538667664495968e-01 7.514970355548392655e-01 0.000000000000000000e+00
Cu 6.252239677624954473e-01 8.569865810355657976e-01 0.000000000000000000e+00
Cu 6.234375972474551775e-01 9.624781099939637707e-01 0.000000000000000000e+00
Cu 7.504898112686118061e-01 1.912662372514660133e-02 0.000000000000000000e+00
Cu 7.471489433453193385e-01 1.235840239778295546e-01 0.000000000000000000e+00
Cu 7.438646641053398012e-01 2.282950322889315264e-01 0.000000000000000000e+00
Cu 7.407969200895071493e-01 3.332675323596093198e-01 0.000000000000000000e+00
Cu 7.380798137537024628e-01 4.384339691311011644e-01 0.000000000000000000e+00
Cu 7.357330422220365040e-01 5.436332896975666351e-01 0.000000000000000000e+00
Cu 7.336920400868834902e-01 6.487951752824748786e-01 0.000000000000000000e+00
Cu 7.317683271126618205e-01 7.539211975157682488e-01 0.000000000000000000e+00
Cu 7.300492252940518068e-01 8.591773584820602272e-01 0.000000000000000000e+00
Cu 7.285112108558289279e-01 9.643643364392640027e-01 0.000000000000000000e+00
Cu 8.573624916464069878e-01 2.276296916718027752e-02 0.000000000000000000e+00
Cu 8.534806889349306758e-01 1.272255482923780323e-01 0.000000000000000000e+00
Cu 8.496610394932380128e-01 2.318730605132550415e-01 0.000000000000000000e+00
Cu 8.460923229566803538e-01 3.367141556269660496e-01 0.000000000000000000e+00
Cu 8.430866191674860621e-01 4.417387812333608554e-01 0.000000000000000000e+00
Cu 8.408254731240561997e-01 5.467237008580723145e-01 0.000000000000000000e+00
Cu 8.388432601256462506e-01 6.514941671453786665e-01 0.000000000000000000e+00
Cu 8.368637110091133868e-01 7.564886620670389084e-01 0.000000000000000000e+00
Cu 2.802731056075806304e+00 6.894552299749383550e-01 0.000000000000000000e+00
Cu 2.781224079603079602e+00 7.919877546174947103e-01 0.000000000000000000e+00
Cu 9.641224726636226094e-01 2.699270226783597251e-02 0.000000000000000000e+00
Cu 9.596610066745598910e-01 1.314581394996310881e-01 0.000000000000000000e+00
Cu 9.553645409571321911e-01 2.361092457093886265e-01 0.000000000000000000e+00
Cu 9.513226992703623930e-01 3.406934805466779737e-01 0.000000000000000000e+00
Cu 9.479860926638419283e-01 4.452260599942619579e-01 0.000000000000000000e+00
Cu 9.463064023963828619e-01 5.494140426566155311e-01 0.000000000000000000e+00
Cu 9.442433187294181351e-01 6.541700740684968096e-01 0.000000000000000000e+00
Cu 2.933617585328785804e+00 6.107357845951703057e-01 0.000000000000000000e+00
Cu 2.910445999771491099e+00 7.116176644997664891e-01 0.000000000000000000e+00
Cu 2.891205747023102735e+00 8.113001869811703459e-01 0.000000000000000000e+00
Cu 1.070704711597298964e+00 3.184553145284529235e-02 0.000000000000000000e+00
Cu 1.065648965767130640e+00 1.363830803057602681e-01 0.000000000000000000e+00
Cu 1.060767572184682095e+00 2.409899306035803712e-01 0.000000000000000000e+00
Cu 1.056517612621861169e+00 3.458107831034539226e-01 0.000000000000000000e+00
Cu 3.118122992163194773e+00 3.316606549417784322e-01 0.000000000000000000e+00
Cu 3.085440793064441856e+00 4.307705647787936631e-01 0.000000000000000000e+00
Cu 3.067100762381673729e+00 5.330879895549084369e-01 0.000000000000000000e+00
Cu 3.043178778694902054e+00 6.326039999341857012e-01 0.000000000000000000e+00
Cu 3.023623335490858377e+00 7.310785881411410170e-01 0.000000000000000000e+00
Cu 3.007264795356150877e+00 8.285745129143853305e-01 0.000000000000000000e+00
Cu 1.177067583929477967e+00 3.745975854090614898e-02 0.000000000000000000e+00
Cu 1.171256078250675792e+00 1.420028072227089433e-01 0.000000000000000000e+00
Cu 1.165960766741744870e+00 2.468514195628841723e-01 0.000000000000000000e+00
Cu 3.253046149986092761e+00 2.589986403803145043e-01 0.000000000000000000e+00
Cu 3.223814376042337670e+00 3.586149410308033247e-01 0.000000000000000000e+00
Cu 3.202707586160673969e+00 4.569803787033645537e-01 0.000000000000000000e+00
Cu 3.177841931203382764e+00 5.533220933679570130e-01 0.000000000000000000e+00
Cu 3.158852698692662386e+00 6.512734010456232570e-01 0.000000000000000000e+00
Cu 3.142094764243036131e+00 7.475452238550522877e-01 0.000000000000000000e+00
Cu 3.128477491321661752e+00 8.429964381845351795e-01 0.000000000000000000e+00
Cu 1.283038304986946931e+00 4.381918502368770812e-02 0.000000000000000000e+00
Cu 1.276545152234612068e+00 1.486368981734412786e-01 0.000000000000000000e+00
Cu 3.391169569643892157e+00 1.881958840809694888e-01 0.000000000000000000e+00
Cu 3.361799856299072520e+00 2.859489312949808903e-01 0.000000000000000000e+00
Cu 3.337884550115708393e+00 3.821310425760680030e-01 0.000000000000000000e+00
Cu 3.316646743454688906e+00 4.778677044488743308e-01 0.000000000000000000e+00
Cu 3.296993486667891382e+00 5.729967508772098039e-01 0.000000000000000000e+00
Cu 3.279702166646606631e+00 6.670257352624622271e-01 0.000000000000000000e+00
Cu 3.265522254222092080e+00 7.611458627352574169e-01 0.000000000000000000e+00
Cu 3.254099528552092835e+00 8.546995293216532730e-01 0.000000000000000000e+00
Cu 1.388634079043573166e+00 5.147722731147330588e-02 0.000000000000000000e+00
Cu 3.529425226310821007e+00 1.188653893452810556e-01 0.000000000000000000e+00
Cu 3.501530965005623219e+00 2.156490962289428770e-01 0.000000000000000000e+00
Cu 3.478006538099847500e+00 3.102042170564039969e-01 0.000000000000000000e+00
Cu 3.457192375803184170e+00 4.033785342540436303e-01 0.000000000000000000e+00
Cu 3.438325300916792227e+00 4.960693468590108846e-01 0.000000000000000000e+00
Cu 3.421204909043369380e+00 5.883949744275883686e-01 0.000000000000000000e+00
Cu 3.406046737441227101e+00 6.803982276725051292e-01 0.000000000000000000e+00
Cu 3.393333410897423796e+00 7.722576101674482052e-01 0.000000000000000000e+00
Cu 3.383594556552914412e+00 8.640687443308100457e-01 0.000000000000000000e+00
Cu 3.664530711963186249e+00 4.860291939997187644e-02 0.000000000000000000e+00
Cu 3.641034358266303617e+00 1.454254704529148734e-01 0.000000000000000000e+00
Cu 3.619861083365659038e+00 2.389772529420907676e-01 0.000000000000000000e+00
Cu 3.600664875752350724e+00 3.306195002819607986e-01 0.000000000000000000e+00
Cu 3.582866379902803988e+00 4.212334100985014040e-01 0.000000000000000000e+00
Cu 3.566160087433158044e+00 5.113327372179840014e-01 0.000000000000000000e+00
Cu 3.550677794006680266e+00 6.012705558672635231e-01 0.000000000000000000e+00
Cu 3.536810907161693329e+00 6.912378217291336169e-01 0.000000000000000000e+00
Cu 3.525168799310215206e+00 7.813506993729726346e-01 0.000000000000000000e+00
Cu 3.516458928099503112e+00 8.715893184895856516e-01 0.000000000000000000e+00
Cu 3.776962540194923168e+00 7.074908799907933532e-02 0.000000000000000000e+00
Cu 3.760905168920431585e+00 1.657060740759785655e-01 0.000000000000000000e+00
Cu 3.745049763383409669e+00 2.573509869080926604e-01 0.000000000000000000e+00
Cu 3.729603014790699778e+00 3.470149535323404089e-01 0.000000000000000000e+00
Cu 3.714371149004115580e+00 4.356970159607027049e-01 0.000000000000000000e+00
Cu 3.699376961970200828e+00 5.239622452058915192e-01 0.000000000000000000e+00
Cu 3.684951351469885505e+00 6.120890808626192614e-01 0.000000000000000000e+00
Cu 3.671704478879238120e+00 7.003248401663793032e-01 0.000000000000000000e+00
Cu 3.660473015707738309e+00 7.889001157195255631e-01 0.000000000000000000e+00
Cu 3.652239376674039750e+00 8.778375220413396907e-01 0.000000000000000000e+00
Cu 3.898230767616958303e+00 8.839741088196045871e-02 0.000000000000000000e+00
Cu 3.887598682836430619e+00 1.811155435596162599e-01 0.000000000000000000e+00
Cu 3.876464089334498819e+00 2.712129729712809412e-01 0.000000000000000000e+00
Cu 3.864308486717652258e+00 3.595452198085251072e-01 0.000000000000000000e+00
Cu 3.851112339678585350e+00 4.471687763200434262e-01 0.000000000000000000e+00
Cu 3.837370483051457448e+00 5.345138743939765735e-01 0.000000000000000000e+00
Cu 3.823620199467471892e+00 6.215565468214059308e-01 0.000000000000000000e+00
Cu 3.810444717906246836e+00 7.084423439719992333e-01 0.000000000000000000e+00
Cu 3.798881479118710214e+00 7.956607488832728725e-01 0.000000000000000000e+00
Cu 3.790380726883611828e+00 8.835199979294897643e-01 0.000000000000000000e+00
Cu 4.026424749791499558e+00 1.017178924048154354e-01 0.000000000000000000e+00
Cu 4.020835501196036610e+00 1.924339626792095914e-01 0.000000000000000000e+00
Cu 4.014011914157567418e+00 2.809641149547847938e-01 0.000000000000000000e+00
Cu 4.004380367941818619e+00 3.686729742259456377e-01 0.000000000000000000e+00
Cu 3.992444729890418653e+00 4.563075933880444968e-01 0.000000000000000000e+00
Cu 3.979534005203383185e+00 5.436752417449484120e-01 0.000000000000000000e+00
Cu 3.966361405570790311e+00 6.305978569565985348e-01 0.000000000000000000e+00
Cu 3.952956940966684929e+00 7.166921429137065314e-01 0.000000000000000000e+00
Cu 3.940120150521704279e+00 8.026319074578803781e-01 0.000000000000000000e+00
Cu 3.930126844731438140e+00 8.896607448971795007e-01 0.000000000000000000e+00
Cu 4.159393103149989557e+00 1.092873295827129498e-01 0.000000000000000000e+00
Cu 4.160774353778405654e+00 1.986010017626735069e-01 0.000000000000000000e+00
Cu 4.157944148972605447e+00 2.864590287663392743e-01 0.000000000000000000e+00
Cu 4.149025228533226972e+00 3.753710656427564629e-01 0.000000000000000000e+00
Cu 4.137824917361294652e+00 4.640410073004826441e-01 0.000000000000000000e+00
Cu 4.125406867667385846e+00 5.521879967972919134e-01 0.000000000000000000e+00
Cu 4.112485624979288268e+00 6.397400315946446536e-01 0.000000000000000000e+00
Cu 4.099567175878293668e+00 7.266682473288682553e-01 0.000000000000000000e+00
Cu 4.084312402400334108e+00 8.116031019591908313e-01 0.000000000000000000e+00
Cu 4.069845940859826428e+00 8.980637610176854801e-01 0.000000000000000000e+00
Cu 4.291109121828262651e+00 1.021746476239875356e-01 0.000000000000000000e+00
Cu 4.310097252368755960e+00 1.961300305946876987e-01 0.000000000000000000e+00
Cu 4.305993631365455876e+00 2.896135564133457407e-01 0.000000000000000000e+00
Cu 4.297863628762715216e+00 3.813529651637690976e-01 0.000000000000000000e+00
Cu 4.286853618367962859e+00 4.715321551193852323e-01 0.000000000000000000e+00
Cu 4.274666407769540655e+00 5.606340819827717592e-01 0.000000000000000000e+00
Cu 4.262001364264094150e+00 6.490858527973765169e-01 0.000000000000000000e+00
Cu 4.248448532183132009e+00 7.375346739978376753e-01 0.000000000000000000e+00
Cu 4.234503133430514765e+00 8.271960983567251402e-01 0.000000000000000000e+00
Cu 4.202804701340831173e+00 9.163176988796519762e-01 0.000000000000000000e+00
