200

Cu 0.000000000000000000e+00 6.472947370185754001e-02 0.000000000000000000e+00
Cu 0.000000000000000000e+00 1.571813996845220773e-01 0.000000000000000000e+00
Cu 0.000000000000000000e+00 2.476244466808092959e-01 0.000000000000000000e+00
Cu 0.000000000000000000e+00 3.371317563226425840e-01 0.000000000000000000e+00
Cu 0.000000000000000000e+00 4.263319610341192445e-01 0.000000000000000000e+00
Cu 0.000000000000000000e+00 5.156497659134310352e-01 0.000000000000000000e+00
Cu 0.000000000000000000e+00 6.054621151958025083e-01 0.000000000000000000e+00
Cu 0.000000000000000000e+00 6.961001959139189177e-01 0.000000000000000000e+00
Cu 0.000000000000000000e+00 7.879944943636382204e-01 0.000000000000000000e+00
Cu 0.000000000000000000e+00 8.818705982120152997e-01 0.000000000000000000e+00
Cu 1.409426817246465513e-01 7.129785439332274322e-02 0.000000000000000000e+00
Cu 1.393877714495645459e-01 1.594884500098329994e-01 0.000000000000000000e+00
Cu 1.393269746782689888e-01 2.486240375796534285e-01 0.000000000000000000e+00
Cu 1.391267443422401773e-01 3.376060187730599016e-01 0.000000000000000000e+00
Cu 1.387214630959273109e-01 4.264206534096947054e-01 0.000000000000000000e+00
Cu 1.380749057225371113e-01 5.153508660783441275e-01 0.000000000000000000e+00
Cu 1.372741698598929638e-01 6.047386370982582582e-01 0.000000000000000000e+00
Cu 1.365002980079042250e-01 6.948515277604325746e-01 0.000000000000000000e+00
Cu 1.359299646224122193e-01 7.855808861780047003e-01 0.000000000000000000e+00
Cu 1.371839751298558341e-01 8.756416229392326445e-01 0.000000000000000000e+00
Cu 2.811501373208193932e-01 7.449783004983775991e-02 0.000000000000000000e+00
Cu 2.798799733402365653e-01 1.623581520223222607e-01 0.000000000000000000e+00
Cu 2.791658102038241940e-01 2.504667058968390037e-01 0.000000000000000000e+00
Cu 2.787056940744577216e-01 3.387904011874796617e-01 0.000000000000000000e+00
Cu 2.779176378276052573e-01 4.270458417808420393e-01 0.000000000000000000e+00
Cu 2.766545670078665586e-01 5.153043458414429123e-01 0.000000000000000000e+00
Cu 2.750229358761535625e-01 6.038652042646500684e-01 0.000000000000000000e+00
Cu 2.734141109018382587e-01 6.930200410417546308e-01 0.000000000000000000e+00
Cu 2.726507103024949918e-01 7.826548487920971242e-01 0.000000000000000000e+00
Cu 2.732293617102828920e-01 8.725904763714484869e-01 0.000000000000000000e+00
Cu 4.212241508891888531e-01 7.680326330915078492e-02 0.000000000000000000e+00
Cu 4.202043565800378522e-01 1.646659000067511591e-01 0.000000000000000000e+00
Cu 4.194544575356728422e-01 2.525777482002788954e-01 0.000000000000000000e+00
Cu 4.187970978235685537e-01 3.405229839583517326e-01 0.000000000000000000e+00
Cu 4.178101274527076248e-01 4.283205668737007366e-01 0.000000000000000000e+00
Cu 4.160738830564909008e-01 5.158393376222959459e-01 0.000000000000000000e+00
Cu 4.135373262549830731e-01 6.033121536427235032e-01 0.000000000000000000e+00
Cu 4.107723188822200444e-01 6.912936662828683687e-01 0.000000000000000000e+00
Cu 4.087492724238029340e-01 7.803590304941546707e-01 0.000000000000000000e+00
Cu 4.082761638000861892e-01 8.705634305530403072e-01 0.000000000000000000e+00
Cu 5.612233856452176761e-01 7.867866655611313598e-02 0.000000000000000000e+00
Cu 5.604210229058180781e-01 1.666085429801995033e-01 0.000000000000000000e+00
Cu 5.598199425528368467e-01 2.545924338236258966e-01 0.000000000000000000e+00
Cu 5.592455204105968303e-01 3.425688136903629055e-01 0.000000000000000000e+00
Cu 5.583974219812926076e-01 4.303420740064613503e-01 0.000000000000000000e+00
Cu 5.565743446181466991e-01 5.174675145741172155e-01 0.000000000000000000e+00
Cu 5.532229331314478804e-01 6.038741610375806257e-01 0.000000000000000000e+00
Cu 5.485855386837943382e-01 6.904223251959181740e-01 0.000000000000000000e+00
Cu 5.440765750484913843e-01 7.786718052591813377e-01 0.000000000000000000e+00
Cu 5.415955059306057917e-01 8.694030218256073583e-01 0.000000000000000000e+00
Cu 7.011669297945620771e-01 8.021351865524646574e-02 0.000000000000000000e+00
Cu 7.005664910383870847e-01 1.682212302625964162e-01 0.000000000000000000e+00
Cu 7.001467776976814106e-01 2.563689650752140059e-01 0.000000000000000000e+00
Cu 6.998051181183375657e-01 3.446390265259740571e-01 0.000000000000000000e+00
Cu 6.992552895632322407e-01 4.328697959514722915e-01 0.000000000000000000e+00
Cu 6.981907597493324236e-01 5.206535054022540798e-01 0.000000000000000000e+00
Cu 6.945969444452612107e-01 6.066690280382659450e-01 0.000000000000000000e+00
Cu 6.876992979952665230e-01 6.915724358933152960e-01 0.000000000000000000e+00
Cu 6.786287770308483402e-01 7.782165663137223799e-01 0.000000000000000000e+00
Cu 6.714251504308006435e-01 8.698328301509276050e-01 0.000000000000000000e+00
Cu 8.410941648811627314e-01 8.140083816964532870e-02 0.000000000000000000e+00
Cu 8.406719494871373044e-01 1.694548323459032224e-01 0.000000000000000000e+00
Cu 8.404104978471396148e-01 2.577539514734227821e-01 0.000000000000000000e+00
Cu 8.402360273405942159e-01 3.463658474350236327e-01 0.000000000000000000e+00
Cu 8.401172101722708119e-01 4.353199206936439469e-01 0.000000000000000000e+00
Cu 8.395002243026091771e-01 5.244447059165117109e-01 0.000000000000000000e+00
Cu 8.387263895444105888e-01 6.132635855032493311e-01 0.000000000000000000e+00
Cu 8.293346505753685927e-01 6.968000859480875109e-01 0.000000000000000000e+00
Cu 8.131123668390032311e-01 7.818289290082948151e-01 0.000000000000000000e+00
Cu 7.933297871036890658e-01 8.752169207865788669e-01 0.000000000000000000e+00
Cu 9.810722748396526471e-01 8.222090959092653861e-02 0.000000000000000000e+00
Cu 9.808106613226501569e-01 1.702593166219273646e-01 0.000000000000000000e+00
Cu 9.806395585121336911e-01 2.586072758881255984e-01 0.000000000000000000e+00
Cu 9.805813070237228146e-01 3.474025945951483285e-01 0.000000000000000000e+00
Cu 9.805417072579309945e-01 4.368167150329658743e-01 0.000000000000000000e+00
Cu 9.808032600462927020e-01 5.271485847863829344e-01 0.000000000000000000e+00
Cu 9.797160083283051879e-01 6.188636498971360478e-01 0.000000000000000000e+00
Cu 9.824223625268212468e-01 7.134178489015684521e-01 0.000000000000000000e+00
Cu 9.401219065381678508e-01 7.955302875366994098e-01 0.000000000000000000e+00
Cu 9.005442485283909893e-01 8.963503370000672765e-01 0.000000000000000000e+00
Cu 1.121199023077524171e+00 8.267676041928104236e-02 0.000000000000000000e+00
Cu 1.121074266904365624e+00 1.706217094859967809e-01 0.000000000000000000e+00
Cu 1.120979035215451614e+00 2.588671579919693544e-01 0.000000000000000000e+00
Cu 1.120940193695062925e+00 3.475419898794392393e-01 0.000000000000000000e+00
Cu 1.121088525524296164e+00 4.368170317189783991e-01 0.000000000000000000e+00
Cu 1.121152312472058599e+00 5.269978042507716953e-01 0.000000000000000000e+00
Cu 1.122774908025169438e+00 6.185517854251867398e-01 0.000000000000000000e+00
Cu 1.120730672425227281e+00 7.129735293497790893e-01 0.000000000000000000e+00
Cu 1.163703781551615357e+00 7.944605112066784880e-01 0.000000000000000000e+00
Cu 1.203913276686765510e+00 8.947359194416949491e-01 0.000000000000000000e+00
Cu 1.261568812685996299e+00 8.280580448847725539e-02 0.000000000000000000e+00
Cu 1.261576990714563307e+00 1.705828680136259878e-01 0.000000000000000000e+00
Cu 1.261567889555179622e+00 2.585729076882829491e-01 0.000000000000000000e+00
Cu 1.261658053646786071e+00 3.468148118070442654e-01 0.000000000000000000e+00
Cu 1.261901517324484523e+00 4.353350791666552588e-01 0.000000000000000000e+00
Cu 1.262861731646973018e+00 5.239852252964565249e-01 0.000000000000000000e+00
Cu 1.264148034927707887e+00 6.123311970288690675e-01 0.000000000000000000e+00
Cu 1.274199047000230678e+00 6.953516500958595303e-01 0.000000000000000000e+00
Cu 1.291110453496949528e+00 7.798331063944362596e-01 0.000000000000000000e+00
Cu 1.311588240302940411e+00 8.726479439292615936e-01 0.000000000000000000e+00
Cu 1.402257912635606729e+00 8.268033209836102293e-02 0.000000000000000000e+00
Cu 1.402393745300728023e+00 1.702387048478904985e-01 0.000000000000000000e+00
Cu 1.402547010521641546e+00 2.578675629089360322e-01 0.000000000000000000e+00
Cu 1.402844616389864241e+00 3.454918069161329597e-01 0.000000000000000000e+00
Cu 1.403569744935908581e+00 4.329451662042413385e-01 0.000000000000000000e+00
Cu 1.404993706334633607e+00 5.198775854726770396e-01 0.000000000000000000e+00
Cu 1.409112136216635003e+00 6.050420850267651529e-01 0.000000000000000000e+00
Cu 1.416667123535342521e+00 6.891427798952448613e-01 0.000000000000000000e+00
Cu 1.426519965029083403e+00 7.750357419020098559e-01 0.000000000000000000e+00
Cu 1.434582525669496178e+00 8.659043532504581142e-01 0.000000000000000000e+00
Cu 1.543286867818663977e+00 8.239777824291492914e-02 0.000000000000000000e+00
Cu 1.543559923566074854e+00 1.697267433780817458e-01 0.000000000000000000e+00
Cu 1.543933006557759224e+00 2.569757005868195110e-01 0.000000000000000000e+00
Cu 1.544574463144534837e+00 3.439823919603455793e-01 0.000000000000000000e+00
Cu 1.545708245802726921e+00 4.305516849140237912e-01 0.000000000000000000e+00
Cu 1.547946993152214290e+00 5.163427042496591124e-01 0.000000000000000000e+00
Cu 1.551815995385338320e+00 6.014305608407299886e-01 0.000000000000000000e+00
Cu 1.557125106226940003e+00 6.867872273974664488e-01 0.000000000000000000e+00
Cu 1.562501965102991441e+00 7.739966685433691262e-01 0.000000000000000000e+00
Cu 1.566025575486435395e+00 8.637710436198955399e-01 0.000000000000000000e+00
Cu 1.684616286144294595e+00 8.205626585951610041e-02 0.000000000000000000e+00
Cu 1.685035820639136039e+00 1.691953481694582206e-01 0.000000000000000000e+00
Cu 1.685686114741185460e+00 2.561287380886940190e-01 0.000000000000000000e+00
Cu 1.686666742905286176e+00 3.426849256845559411e-01 0.000000000000000000e+00
Cu 1.688171747623124608e+00 4.287351182439026465e-01 0.000000000000000000e+00
Cu 1.690422833462869923e+00 5.143276785913396543e-01 0.000000000000000000e+00
Cu 1.693444593389846098e+00 5.998782363220381830e-01 0.000000000000000000e+00
Cu 1.696806145995903403e+00 6.861495370910170033e-01 0.000000000000000000e+00
Cu 1.699714832793448593e+00 7.738220874609305078e-01 0.000000000000000000e+00
Cu 1.701392053899587697e+00 8.628507335351216501e-01 0.000000000000000000e+00
Cu 1.826137511155617732e+00 8.171803429722034051e-02 0.000000000000000000e+00
Cu 1.826738428829545180e+00 1.687471262792557547e-01 0.000000000000000000e+00
Cu 1.827702979810377659e+00 2.554857988897936139e-01 0.000000000000000000e+00
Cu 1.829012374173473843e+00 3.417939489825045918e-01 0.000000000000000000e+00
Cu 1.830659046095117759e+00 4.276871213239704650e-01 0.000000000000000000e+00
Cu 1.832599191339272515e+00 5.133924047164640792e-01 0.000000000000000000e+00
Cu 1.834678595989503780e+00 5.993516708988796404e-01 0.000000000000000000e+00
Cu 1.836610149255887281e+00 6.860638275090341631e-01 0.000000000000000000e+00
Cu 1.838070316189538644e+00 7.737880472939258070e-01 0.000000000000000000e+00
Cu 1.838837659399745750e+00 8.623141089118395719e-01 0.000000000000000000e+00
Cu 1.967689631835381592e+00 8.136615383603193474e-02 0.000000000000000000e+00
Cu 1.968552620332077785e+00 1.683908135751450985e-01 0.000000000000000000e+00
Cu 1.969911385801905279e+00 2.550586771650148465e-01 0.000000000000000000e+00
Cu 1.971549897043658683e+00 3.412885245218192365e-01 0.000000000000000000e+00
Cu 1.973251461716599042e+00 4.272008794862894310e-01 0.000000000000000000e+00
Cu 1.974807049034418727e+00 5.130742270258056292e-01 0.000000000000000000e+00
Cu 1.976046737995940994e+00 5.992730038104649992e-01 0.000000000000000000e+00
Cu 1.976881008853302424e+00 6.861250414554885824e-01 0.000000000000000000e+00
Cu 1.977320217838565597e+00 7.737545754302930234e-01 0.000000000000000000e+00
Cu 1.977470168292163377e+00 8.619571866590989284e-01 0.000000000000000000e+00
Cu 2.109059833919814775e+00 8.086449857252425710e-02 0.000000000000000000e+00
Cu 2.110365559381707445e+00 1.679998088187689420e-01 0.000000000000000000e+00
Cu 2.112289434217670347e+00 2.546900688254388201e-01 0.000000000000000000e+00
Cu 2.114350254891978587e+00 3.409424953209488907e-01 0.000000000000000000e+00
Cu 2.116133944612242690e+00 4.269883045101083296e-01 0.000000000000000000e+00
Cu 2.117351916561196035e+00 5.130850097809519506e-01 0.000000000000000000e+00
Cu 2.117868558518908095e+00 5.994485975285379631e-01 0.000000000000000000e+00
Cu 2.117738702557177000e+00 6.863042694020352608e-01 0.000000000000000000e+00
Cu 2.117227159034161144e+00 7.738093697773283930e-01 0.000000000000000000e+00
Cu 2.116735901656876084e+00 8.618455911262384861e-01 0.000000000000000000e+00
Cu 2.249956029465810747e+00 7.990793578901822514e-02 0.000000000000000000e+00
Cu 2.252082905608666419e+00 1.672779344112059474e-01 0.000000000000000000e+00
Cu 2.254913147623348824e+00 2.540203573515364965e-01 0.000000000000000000e+00
Cu 2.257552033506762701e+00 3.403764708004841655e-01 0.000000000000000000e+00
Cu 2.259435455099549905e+00 4.267633354069148566e-01 0.000000000000000000e+00
Cu 2.260400928311148139e+00 5.133212133155053980e-01 0.000000000000000000e+00
Cu 2.260349231089015198e+00 5.999800726140585017e-01 0.000000000000000000e+00
Cu 2.259264502174007205e+00 6.868308105020876075e-01 0.000000000000000000e+00
Cu 2.257591455886965637e+00 7.742051797118537637e-01 0.000000000000000000e+00
Cu 2.256159732118983907e+00 8.622347636768662449e-01 0.000000000000000000e+00
Cu 2.389870032907122077e+00 7.789545372032780080e-02 0.000000000000000000e+00
Cu 2.393686718366545563e+00 1.656499127340130273e-01 0.000000000000000000e+00
Cu 2.398028164203823476e+00 2.523941810070972069e-01 0.000000000000000000e+00
Cu 2.401263537201932419e+00 3.391208572245857367e-01 0.000000000000000000e+00
Cu 2.403109754660216257e+00 4.263244033931446464e-01 0.000000000000000000e+00
Cu 2.403908554326218194e+00 5.137350315678622659e-01 0.000000000000000000e+00
Cu 2.403583346483364469e+00 6.011512473961427849e-01 0.000000000000000000e+00
Cu 2.401658023216819871e+00 6.882592198439229092e-01 0.000000000000000000e+00
Cu 2.398306361906580086e+00 7.754690711452897345e-01 0.000000000000000000e+00
Cu 2.395110764866768438e+00 8.636813054544061341e-01 0.000000000000000000e+00
Cu 2.527568012042283652e+00 7.341940177157058045e-02 0.000000000000000000e+00
Cu 2.535559268870588578e+00 1.617407286616101281e-01 0.000000000000000000e+00
Cu 2.542065849240421116e+00 2.488018463624188936e-01 0.000000000000000000e+00
Cu 2.545176291667367696e+00 3.370720469098694161e-01 0.000000000000000000e+00
Cu 2.547038048303490676e+00 4.255899558128719007e-01 0.000000000000000000e+00
Cu 2.547738946589610087e+00 5.142376988842749519e-01 0.000000000000000000e+00
Cu 2.547222501780620707e+00 6.029359371827101022e-01 0.000000000000000000e+00
Cu 2.545281606369166560e+00 6.915160260149032512e-01 0.000000000000000000e+00
Cu 2.539683124612706067e+00 7.789519108866371777e-01 0.000000000000000000e+00
Cu 2.532261965259092307e+00 8.675881291693214870e-01 0.000000000000000000e+00
Cu 2.658222032881312646e+00 5.947514036053196118e-02 0.000000000000000000e+00
Cu 2.679993017989750204e+00 1.522036794680507454e-01 0.000000000000000000e+00
Cu 2.685652140229028095e+00 2.440882062284526755e-01 0.000000000000000000e+00
Cu 2.689295163108700315e+00 3.346670502738939290e-01 0.000000000000000000e+00
Cu 2.691104368685978354e+00 4.246659510599303244e-01 0.000000000000000000e+00
Cu 2.691758021348670038e+00 5.145905584721124360e-01 0.000000000000000000e+00
Cu 2.691207088253612767e+00 6.047788381330956309e-01 0.000000000000000000e+00
Cu 2.688689667355420365e+00 6.956948311906117066e-01 0.000000000000000000e+00
Cu 2.683915948804549867e+00 7.879606333689767039e-01 0.000000000000000000e+00
Cu 2.662753191222125615e+00 8.810514200883481362e-01 0.000000000000000000e+00
