200

Cu 0.000000000000000000e+00 2.376232773880775529e-04 0.000000000000000000e+00
Cu 0.000000000000000000e+00 1.054423749918324549e-01 0.000000000000000000e+00
Cu 0.000000000000000000e+00 2.106461776234555272e-01 0.000000000000000000e+00
Cu 0.000000000000000000e+00 3.158525321321175028e-01 0.000000000000000000e+00
Cu 0.000000000000000000e+00 4.210619602304798703e-01 0.000000000000000000e+00
Cu 0.000000000000000000e+00 5.262732979584150428e-01 0.000000000000000000e+00
Cu 0.000000000000000000e+00 6.314849850758404992e-01 0.000000000000000000e+00
Cu 0.000000000000000000e+00 7.366955709786984219e-01 0.000000000000000000e+00
Cu 0.000000000000000000e+00 8.419049202081942962e-01 0.000000000000000000e+00
Cu 0.000000000000000000e+00 9.471154174111976465e-01 0.000000000000000000e+00
Cu 1.054795264294113299e-01 2.932240243119853371e-04 0.000000000000000000e+00
Cu 1.054535640501255561e-01 1.054634263445367592e-01 0.000000000000000000e+00
Cu 1.054451276602537541e-01 2.106560842406129952e-01 0.000000000000000000e+00
Cu 1.054395134452923849e-01 3.158573004797969319e-01 0.000000000000000000e+00
Cu 1.054355711324223982e-01 4.210630128064883348e-01 0.000000000000000000e+00
Cu 1.054332556830580719e-01 5.262710960937104776e-01 0.000000000000000000e+00
Cu 1.054327110705176873e-01 6.314793691917688356e-01 0.000000000000000000e+00
Cu 1.054342897021767894e-01 7.366853331576410646e-01 0.000000000000000000e+00
Cu 1.054393611455343022e-01 8.418845606894049816e-01 0.000000000000000000e+00
Cu 1.054618410631971148e-01 9.470634222369580524e-01 0.000000000000000000e+00
Cu 2.109608848551312865e-01 3.343414257642985353e-04 0.000000000000000000e+00
Cu 2.109265256522435961e-01 1.054992987201436305e-01 0.000000000000000000e+00
Cu 2.109039248260536625e-01 2.106783428595671859e-01 0.000000000000000000e+00
Cu 2.108904745347078002e-01 3.158696351133878366e-01 0.000000000000000000e+00
Cu 2.108815280164818007e-01 4.210673168146997769e-01 0.000000000000000000e+00
Cu 2.108764824383823067e-01 5.262680440447505825e-01 0.000000000000000000e+00
Cu 2.108759164499662275e-01 6.314688064775260123e-01 0.000000000000000000e+00
Cu 2.108810104837197941e-01 7.366654029101532553e-01 0.000000000000000000e+00
Cu 2.108961143845001773e-01 8.418517899051415343e-01 0.000000000000000000e+00
Cu 2.109238517938188673e-01 9.470262111429030849e-01 0.000000000000000000e+00
Cu 3.164582911352095129e-01 3.854806632701804261e-04 0.000000000000000000e+00
Cu 3.164146386118882326e-01 1.055405896786539288e-01 0.000000000000000000e+00
Cu 3.163830074038623263e-01 2.107099033601520233e-01 0.000000000000000000e+00
Cu 3.163615180035070917e-01 3.158897084097546659e-01 0.000000000000000000e+00
Cu 3.163471105219324286e-01 4.210757232651243243e-01 0.000000000000000000e+00
Cu 3.163385034593340084e-01 5.262646200705577426e-01 0.000000000000000000e+00
Cu 3.163376338096783313e-01 6.314538848845068220e-01 0.000000000000000000e+00
Cu 3.163466388159452136e-01 7.366391765872820629e-01 0.000000000000000000e+00
Cu 3.163663037826426327e-01 8.418160851815217338e-01 0.000000000000000000e+00
Cu 3.163982896541383538e-01 9.469820551455471191e-01 0.000000000000000000e+00
Cu 4.219829249778127567e-01 4.506568904903773083e-04 0.000000000000000000e+00
Cu 4.219274427263050575e-01 1.055915590356669015e-01 0.000000000000000000e+00
Cu 4.218869753280642954e-01 2.107485310734577011e-01 0.000000000000000000e+00
Cu 4.218593443372365415e-01 3.159166386279307348e-01 0.000000000000000000e+00
Cu 4.218415723921805638e-01 4.210900868308742884e-01 0.000000000000000000e+00
Cu 4.218293248601131529e-01 5.262626791574650520e-01 0.000000000000000000e+00
Cu 4.218251335198950902e-01 6.314354804742644545e-01 0.000000000000000000e+00
Cu 4.218352554121796993e-01 7.366084168337276861e-01 0.000000000000000000e+00
Cu 4.218586741686559116e-01 8.417755074171022756e-01 0.000000000000000000e+00
Cu 4.218941032556102755e-01 9.469299555623207354e-01 0.000000000000000000e+00
Cu 5.275454927363385504e-01 5.333177274128708808e-04 0.000000000000000000e+00
Cu 5.274752229865685704e-01 1.056548113597759603e-01 0.000000000000000000e+00
Cu 5.274240005121545449e-01 2.107952375291029523e-01 0.000000000000000000e+00
Cu 5.273899855273722626e-01 3.159491189579284320e-01 0.000000000000000000e+00
Cu 5.273708066343226752e-01 4.211099890137139368e-01 0.000000000000000000e+00
Cu 5.273619949295172971e-01 5.262690782193516492e-01 0.000000000000000000e+00
Cu 5.273504264826045507e-01 6.314147731673112052e-01 0.000000000000000000e+00
Cu 5.273510096758380339e-01 7.365688841303306145e-01 0.000000000000000000e+00
Cu 5.273787273025205558e-01 8.417299188725156922e-01 0.000000000000000000e+00
Cu 5.274206372695905420e-01 9.468757726442498246e-01 0.000000000000000000e+00
Cu 6.331575894156868944e-01 6.370254096518509004e-04 0.000000000000000000e+00
Cu 6.330689975852209495e-01 1.057333571924104487e-01 0.000000000000000000e+00
Cu 6.330040242309099563e-01 2.108517897019179244e-01 0.000000000000000000e+00
Cu 6.329613238809281839e-01 3.159865498611531542e-01 0.000000000000000000e+00
Cu 6.329398902686648176e-01 4.211316645156011340e-01 0.000000000000000000e+00
Cu 6.329368699592052838e-01 5.262797125569317336e-01 0.000000000000000000e+00
Cu 6.329458348660054190e-01 6.314176497397820942e-01 0.000000000000000000e+00
Cu 6.329074233665086258e-01 7.365061724201871218e-01 0.000000000000000000e+00
Cu 6.329040463189687937e-01 8.416744357958143574e-01 0.000000000000000000e+00
Cu 6.330026864796713948e-01 9.468224139506580261e-01 0.000000000000000000e+00
Cu 7.388317695151155329e-01 7.662534597475930201e-04 0.000000000000000000e+00
Cu 7.387208326976939521e-01 1.058311185390386211e-01 0.000000000000000000e+00
Cu 7.386387340090552200e-01 2.109211208429587758e-01 0.000000000000000000e+00
Cu 7.385844142623997355e-01 3.160298058813339472e-01 0.000000000000000000e+00
Cu 7.385574196746159670e-01 4.211514275715244060e-01 0.000000000000000000e+00
Cu 7.385578567499389013e-01 5.262811662939478330e-01 0.000000000000000000e+00
Cu 7.385805202944897285e-01 6.314150251044831075e-01 0.000000000000000000e+00
Cu 7.386311752219549831e-01 7.365466582552750996e-01 0.000000000000000000e+00
Cu 7.383416256862039839e-01 8.415331635826446277e-01 0.000000000000000000e+00
Cu 7.387122087008917148e-01 9.466851608417991004e-01 0.000000000000000000e+00
Cu 8.445813382453798424e-01 9.264403106878000855e-04 0.000000000000000000e+00
Cu 8.444438704871357615e-01 1.059530913353697729e-01 0.000000000000000000e+00
Cu 8.443416103256543570e-01 2.110073218066897405e-01 0.000000000000000000e+00
Cu 8.442733838320143347e-01 3.160813169095453845e-01 0.000000000000000000e+00
Cu 8.442390747503961679e-01 4.211685676821452229e-01 0.000000000000000000e+00
Cu 8.442386171969745723e-01 5.262638080646921956e-01 0.000000000000000000e+00
Cu 8.442773151301176116e-01 6.313624706173687207e-01 0.000000000000000000e+00
Cu 8.443500531244765295e-01 7.364552447518731837e-01 0.000000000000000000e+00
Cu 8.448347927160442250e-01 8.413888977164617478e-01 0.000000000000000000e+00
Cu 8.446731305820275315e-01 9.464884886165261246e-01 0.000000000000000000e+00
Cu 9.504198891420425621e-01 1.123758117010163152e-03 0.000000000000000000e+00
Cu 9.502521805220857098e-01 1.061051897195726956e-01 0.000000000000000000e+00
Cu 9.501278453703778659e-01 2.111154049370997099e-01 0.000000000000000000e+00
Cu 9.500451881366155371e-01 3.161444818397329826e-01 0.000000000000000000e+00
Cu 9.500042021186628771e-01 4.211843134044473969e-01 0.000000000000000000e+00
Cu 9.500077283992036659e-01 5.262265712525854289e-01 0.000000000000000000e+00
Cu 9.500626410725560023e-01 6.312573020475440444e-01 0.000000000000000000e+00
Cu 9.502300792262013962e-01 7.362356606700529715e-01 0.000000000000000000e+00
Cu 9.504202949835243164e-01 8.412965182876155357e-01 0.000000000000000000e+00
Cu 9.505622426415836212e-01 9.463303396649751509e-01 0.000000000000000000e+00
Cu 1.056360555249464594e+00 1.364534228888536309e-03 0.000000000000000000e+00
Cu 1.056160411658717990e+00 1.062938313827608700e-01 0.000000000000000000e+00
Cu 1.056014288130299184e+00 2.112510643781316533e-01 0.000000000000000000e+00
Cu 1.055918936830876786e+00 3.162236000123405111e-01 0.000000000000000000e+00
Cu 1.055874320655780574e+00 4.212019367624706412e-01 0.000000000000000000e+00
Cu 1.055884138386278481e+00 5.261772603619686572e-01 0.000000000000000000e+00
Cu 1.055961643408414696e+00 6.311393367000915910e-01 0.000000000000000000e+00
Cu 1.056090761968161651e+00 7.361121948747210153e-01 0.000000000000000000e+00
Cu 1.056256764608759058e+00 8.410916621544123339e-01 0.000000000000000000e+00
Cu 1.056479948287152748e+00 9.460447688888665718e-01 0.000000000000000000e+00
Cu 1.162414942202183221e+00 1.654145069436856966e-03 0.000000000000000000e+00
Cu 1.162183201526279852e+00 1.065250342148581636e-01 0.000000000000000000e+00
Cu 1.162019125519689000e+00 2.114201709142575214e-01 0.000000000000000000e+00
Cu 1.161915735430304686e+00 3.163240153004429622e-01 0.000000000000000000e+00
Cu 1.161870117395011892e+00 4.212275938550291698e-01 0.000000000000000000e+00
Cu 1.161883445063556008e+00 5.261275487263247230e-01 0.000000000000000000e+00
Cu 1.161952481579339391e+00 6.310306458801486773e-01 0.000000000000000000e+00
Cu 1.162073134788580209e+00 7.359399024582917725e-01 0.000000000000000000e+00
Cu 1.162252604199503603e+00 8.408453203173186230e-01 0.000000000000000000e+00
Cu 1.162502491919028325e+00 9.457285611938235359e-01 0.000000000000000000e+00
Cu 1.268591888148122404e+00 1.995174551416820791e-03 0.000000000000000000e+00
Cu 1.268334387798479845e+00 1.068026387386369624e-01 0.000000000000000000e+00
Cu 1.268161533392324625e+00 2.116271866744180719e-01 0.000000000000000000e+00
Cu 1.268058788365536982e+00 3.164506146852649748e-01 0.000000000000000000e+00
Cu 1.268015734495124613e+00 4.212664678907836469e-01 0.000000000000000000e+00
Cu 1.268025310477386203e+00 5.260795499341147652e-01 0.000000000000000000e+00
Cu 1.268085150160203067e+00 6.308988112922860880e-01 0.000000000000000000e+00
Cu 1.268200986524586460e+00 7.357275850476900914e-01 0.000000000000000000e+00
Cu 1.268385676121634997e+00 8.405588226645848149e-01 0.000000000000000000e+00
Cu 1.268654304173972625e+00 9.453754386032672263e-01 0.000000000000000000e+00
Cu 1.374896364609680566e+00 2.384784012506640290e-03 0.000000000000000000e+00
Cu 1.374626424070113817e+00 1.071253676427721541e-01 0.000000000000000000e+00
Cu 1.374461614564260747e+00 2.118716762944638232e-01 0.000000000000000000e+00
Cu 1.374374972674750950e+00 3.166036104581402277e-01 0.000000000000000000e+00
Cu 1.374342608488196227e+00 4.213181265046092583e-01 0.000000000000000000e+00
Cu 1.374348893106744018e+00 5.260261267896301218e-01 0.000000000000000000e+00
Cu 1.374393081805353134e+00 6.307434514260750191e-01 0.000000000000000000e+00
Cu 1.374489948732947608e+00 7.354798599517659019e-01 0.000000000000000000e+00
Cu 1.374663343158851747e+00 8.402317895944431125e-01 0.000000000000000000e+00
Cu 1.374940107672074419e+00 9.449795029602288121e-01 0.000000000000000000e+00
Cu 1.481328714417046166e+00 2.811390492645972610e-03 0.000000000000000000e+00
Cu 1.481070704924358994e+00 1.074827950459345260e-01 0.000000000000000000e+00
Cu 1.480941391235923721e+00 2.121427822228164339e-01 0.000000000000000000e+00
Cu 1.480895309733666787e+00 3.167728544370256305e-01 0.000000000000000000e+00
Cu 1.480888825043094714e+00 4.213760493395364848e-01 0.000000000000000000e+00
Cu 1.480893045817163189e+00 5.259694306908956341e-01 0.000000000000000000e+00
Cu 1.480907716227819026e+00 6.305745372152282702e-01 0.000000000000000000e+00
Cu 1.480961166692687403e+00 7.352080425102700545e-01 0.000000000000000000e+00
Cu 1.481096491024430639e+00 8.398725910156792374e-01 0.000000000000000000e+00
Cu 1.481358804075721292e+00 9.445494723340541743e-01 0.000000000000000000e+00
Cu 1.587883685213947293e+00 3.250214477256088783e-03 0.000000000000000000e+00
Cu 1.587679863074140885e+00 1.078500873360738327e-01 0.000000000000000000e+00
Cu 1.587627975453435036e+00 2.124119593252651317e-01 0.000000000000000000e+00
Cu 1.587653318108246170e+00 3.169313848116800947e-01 0.000000000000000000e+00
Cu 1.587687538550859312e+00 4.214280186863361144e-01 0.000000000000000000e+00
Cu 1.587690436808985250e+00 5.259198817585647445e-01 0.000000000000000000e+00
Cu 1.587661844775514197e+00 6.304178382634234579e-01 0.000000000000000000e+00
Cu 1.587641570842644345e+00 7.349397692706439722e-01 0.000000000000000000e+00
Cu 1.587697523973364389e+00 8.395050616481009031e-01 0.000000000000000000e+00
Cu 1.587904036976738320e+00 9.441089365560694224e-01 0.000000000000000000e+00
Cu 1.694547481072541384e+00 3.655042175722416926e-03 0.000000000000000000e+00
Cu 1.694474232191132135e+00 1.081784490089992695e-01 0.000000000000000000e+00
Cu 1.694560604819777661e+00 2.126229408750682226e-01 0.000000000000000000e+00
Cu 1.694680076841910354e+00 3.170314025815196834e-01 0.000000000000000000e+00
Cu 1.694751096700380710e+00 4.214555327183291955e-01 0.000000000000000000e+00
Cu 1.694753121208884217e+00 5.258950424307461402e-01 0.000000000000000000e+00
Cu 1.694686007528052540e+00 6.303201064563457301e-01 0.000000000000000000e+00
Cu 1.694569999638762869e+00 7.347303465438725922e-01 0.000000000000000000e+00
Cu 1.694486336913002988e+00 8.391772626269305979e-01 0.000000000000000000e+00
Cu 1.694561238383849311e+00 9.437034323413350245e-01 0.000000000000000000e+00
Cu 1.801288821661442219e+00 3.933503123910802278e-03 0.000000000000000000e+00
Cu 1.801499374276771759e+00 1.083709470271570358e-01 0.000000000000000000e+00
Cu 1.801796100180905524e+00 2.126776882319107720e-01 0.000000000000000000e+00
Cu 1.801984353407108053e+00 3.170208869255163320e-01 0.000000000000000000e+00
Cu 1.802057457278767316e+00 4.214477849534527532e-01 0.000000000000000000e+00
Cu 1.802058921051689744e+00 5.259050628228544300e-01 0.000000000000000000e+00
Cu 1.801988624997319599e+00 6.303326361927691357e-01 0.000000000000000000e+00
Cu 1.801802820456055665e+00 7.346770970940869061e-01 0.000000000000000000e+00
Cu 1.801507951825953358e+00 8.389855083154744708e-01 0.000000000000000000e+00
Cu 1.801298465848558461e+00 9.434247570529880056e-01 0.000000000000000000e+00
Cu 1.908043029698245352e+00 3.869023420051975054e-03 0.000000000000000000e+00
Cu 1.908868619956920920e+00 1.082029369352388026e-01 0.000000000000000000e+00
Cu 1.909352724991101979e+00 2.124697737741904902e-01 0.000000000000000000e+00
Cu 1.909516591312679035e+00 3.169062732463622800e-01 0.000000000000000000e+00
Cu 1.909568246116910117e+00 4.214138616452574593e-01 0.000000000000000000e+00
Cu 1.909569370682282941e+00 5.259403372324557013e-01 0.000000000000000000e+00
Cu 1.909519871121377443e+00 6.304484614674723542e-01 0.000000000000000000e+00
Cu 1.909357878243667761e+00 7.348859322495373547e-01 0.000000000000000000e+00
Cu 1.908875185279830911e+00 8.391539731330515117e-01 0.000000000000000000e+00
Cu 1.908050415100433606e+00 9.434890237883453157e-01 0.000000000000000000e+00
Cu 2.014700037503874608e+00 2.548714749737950643e-03 0.000000000000000000e+00
Cu 2.016608824879693174e+00 1.073664961859098071e-01 0.000000000000000000e+00
Cu 2.017068426506092305e+00 2.121054582986734161e-01 0.000000000000000000e+00
Cu 2.017224663993852474e+00 3.167631865432976035e-01 0.000000000000000000e+00
Cu 2.017269143443928048e+00 4.213764584784939204e-01 0.000000000000000000e+00
Cu 2.017270067173159376e+00 5.259777201041641037e-01 0.000000000000000000e+00
Cu 2.017227368672402044e+00 6.305915146674546667e-01 0.000000000000000000e+00
Cu 2.017072715068274125e+00 7.352501762636233229e-01 0.000000000000000000e+00
Cu 2.016614378151109221e+00 8.399902450830483147e-01 0.000000000000000000e+00
Cu 2.014706443865392771e+00 9.448089190615053257e-01 0.000000000000000000e+00
