200

Cu 0.000000000000000000e+00 1.990195118775667238e-02 0.000000000000000000e+00
Cu 0.000000000000000000e+00 1.165726709347708473e-01 0.000000000000000000e+00
Cu 0.000000000000000000e+00 2.118796215786754034e-01 0.000000000000000000e+00
Cu 0.000000000000000000e+00 3.067996902431512352e-01 0.000000000000000000e+00
Cu 0.000000000000000000e+00 4.019759333147646108e-01 0.000000000000000000e+00
Cu 0.000000000000000000e+00 4.978361403525564666e-01 0.000000000000000000e+00
Cu 0.000000000000000000e+00 5.947202963622634231e-01 0.000000000000000000e+00
Cu 0.000000000000000000e+00 6.929100510389755163e-01 0.000000000000000000e+00
Cu 0.000000000000000000e+00 7.926720224148209315e-01 0.000000000000000000e+00
Cu 0.000000000000000000e+00 8.942630712825827555e-01 0.000000000000000000e+00
Cu 1.276641034328233337e-01 2.430799968805068267e-02 0.000000000000000000e+00
Cu 1.257141870223454638e-01 1.180954836125499563e-01 0.000000000000000000e+00
Cu 1.246076322497542549e-01 2.125539532312913094e-01 0.000000000000000000e+00
Cu 1.232882993498472801e-01 3.072290299883301823e-01 0.000000000000000000e+00
Cu 1.217638708595344538e-01 4.023365616048979465e-01 0.000000000000000000e+00
Cu 1.200497919210143649e-01 4.982004808750036817e-01 0.000000000000000000e+00
Cu 1.181814795437077931e-01 5.951079574429047891e-01 0.000000000000000000e+00
Cu 1.162099520054952345e-01 6.932903556380183296e-01 0.000000000000000000e+00
Cu 1.142260181973179384e-01 7.928569399806950635e-01 0.000000000000000000e+00
Cu 1.127949966227346917e-01 8.935622605303255028e-01 0.000000000000000000e+00
Cu 2.547650746677005418e-01 2.726467830350049609e-02 0.000000000000000000e+00
Cu 2.520925614538037096e-01 1.209743781587370448e-01 0.000000000000000000e+00
Cu 2.493439125385045751e-01 2.148459723133155919e-01 0.000000000000000000e+00
Cu 2.465031814708730507e-01 3.092865221125639663e-01 0.000000000000000000e+00
Cu 2.433335147517999564e-01 4.043778989128782864e-01 0.000000000000000000e+00
Cu 2.398427017734905409e-01 5.003215733541215293e-01 0.000000000000000000e+00
Cu 2.360864275384919886e-01 5.973262647653616586e-01 0.000000000000000000e+00
Cu 2.321666314223633232e-01 6.955440997569809491e-01 0.000000000000000000e+00
Cu 2.283141475499375350e-01 7.950385897812887182e-01 0.000000000000000000e+00
Cu 2.246799503768772688e-01 8.960133326370591789e-01 0.000000000000000000e+00
Cu 3.815031424343762745e-01 3.062154807103139795e-02 0.000000000000000000e+00
Cu 3.779484284206453548e-01 1.245258658413243846e-01 0.000000000000000000e+00
Cu 3.738576058351671394e-01 2.185122760258955132e-01 0.000000000000000000e+00
Cu 3.693464018900874946e-01 3.129785782830598051e-01 0.000000000000000000e+00
Cu 3.644128651749919401e-01 4.081968598091993972e-01 0.000000000000000000e+00
Cu 3.590543344555553462e-01 5.043429963256448323e-01 0.000000000000000000e+00
Cu 3.533566220686170656e-01 6.015788956651386687e-01 0.000000000000000000e+00
Cu 3.474480786776221186e-01 7.000196837528693816e-01 0.000000000000000000e+00
Cu 3.414401650245829645e-01 7.998085535411774138e-01 0.000000000000000000e+00
Cu 3.353882832710169959e-01 9.011838355009570423e-01 0.000000000000000000e+00
Cu 5.077381789262729317e-01 3.490257678943733261e-02 0.000000000000000000e+00
Cu 5.030684058182643970e-01 1.291346572742225196e-01 0.000000000000000000e+00
Cu 4.975837713582016986e-01 2.235130780656111316e-01 0.000000000000000000e+00
Cu 4.914079896133087821e-01 3.183603342227028787e-01 0.000000000000000000e+00
Cu 4.846199876480833391e-01 4.139437178051777466e-01 0.000000000000000000e+00
Cu 4.772894282307372227e-01 5.104698379645055129e-01 0.000000000000000000e+00
Cu 4.695410654030801600e-01 6.081180381792259393e-01 0.000000000000000000e+00
Cu 4.615118327618533689e-01 7.070331744210289759e-01 0.000000000000000000e+00
Cu 4.532325820970388719e-01 8.073177662350390360e-01 0.000000000000000000e+00
Cu 4.446497037429002486e-01 9.091647096279127371e-01 0.000000000000000000e+00
Cu 6.332563500564964976e-01 4.047526402744176799e-02 0.000000000000000000e+00
Cu 6.272060249430660983e-01 1.351410815659919717e-01 0.000000000000000000e+00
Cu 6.201428373274165962e-01 2.300880517383075141e-01 0.000000000000000000e+00
Cu 6.122058611685009533e-01 3.255799784579506140e-01 0.000000000000000000e+00
Cu 6.034982159720156947e-01 4.218176890196770334e-01 0.000000000000000000e+00
Cu 5.941093861234626461e-01 5.189517793767470799e-01 0.000000000000000000e+00
Cu 5.841714841301879346e-01 6.171576139289903784e-01 0.000000000000000000e+00
Cu 5.738928174713403552e-01 7.166824224073298222e-01 0.000000000000000000e+00
Cu 5.633636963959554045e-01 8.176480822424355699e-01 0.000000000000000000e+00
Cu 5.523415566538247834e-01 9.200079540344370255e-01 0.000000000000000000e+00
Cu 7.578088632513794165e-01 4.770582246440593227e-02 0.000000000000000000e+00
Cu 7.500689771624460267e-01 1.428891455032492985e-01 0.000000000000000000e+00
Cu 7.411529308012296813e-01 2.385173991227376167e-01 0.000000000000000000e+00
Cu 7.312574129382612975e-01 3.348520429381455776e-01 0.000000000000000000e+00
Cu 7.205203399786749285e-01 4.320180042560673450e-01 0.000000000000000000e+00
Cu 7.090467514869720489e-01 5.300396650555245781e-01 0.000000000000000000e+00
Cu 6.969152847032491493e-01 6.289179709014229847e-01 0.000000000000000000e+00
Cu 6.842564353896140039e-01 7.289039456840705755e-01 0.000000000000000000e+00
Cu 6.714594569816155767e-01 8.305218254317259241e-01 0.000000000000000000e+00
Cu 6.586388402509711915e-01 9.335246892025996779e-01 0.000000000000000000e+00
Cu 8.810914994850579385e-01 5.698856847400136927e-02 0.000000000000000000e+00
Cu 8.713415534850894595e-01 1.527738993853648697e-01 0.000000000000000000e+00
Cu 8.602342991947008466e-01 2.491162635535459358e-01 0.000000000000000000e+00
Cu 8.480460533818562352e-01 3.463607937109347557e-01 0.000000000000000000e+00
Cu 8.351098532113968576e-01 4.446804891956702144e-01 0.000000000000000000e+00
Cu 8.215814678586063069e-01 5.438293297327065901e-01 0.000000000000000000e+00
Cu 8.075405753571057721e-01 6.436039975820618819e-01 0.000000000000000000e+00
Cu 7.926924870206448759e-01 7.438942620375916803e-01 0.000000000000000000e+00
Cu 7.772840499030654327e-01 8.453042215818717953e-01 0.000000000000000000e+00
Cu 7.643788836828928623e-01 9.479351527581877379e-01 0.000000000000000000e+00
Cu 1.002713132247347927e+00 6.869571892930975698e-02 0.000000000000000000e+00
Cu 9.906417795008006788e-01 1.652142447767432076e-01 0.000000000000000000e+00
Cu 9.770636531670285896e-01 2.623505338845223411e-01 0.000000000000000000e+00
Cu 9.621151883061724863e-01 3.603255551425259551e-01 0.000000000000000000e+00
Cu 9.465602704737058337e-01 4.597417773449354317e-01 0.000000000000000000e+00
Cu 9.313418177462727821e-01 5.602180814398008968e-01 0.000000000000000000e+00
Cu 9.157991803602408831e-01 6.607562676627484199e-01 0.000000000000000000e+00
Cu 8.989248665442849395e-01 7.623988690017597936e-01 0.000000000000000000e+00
Cu 1.495213574763992526e+00 7.804262605488554438e-01 0.000000000000000000e+00
Cu 1.487730420033935630e+00 8.851197646823815157e-01 0.000000000000000000e+00
Cu 1.122209831730154539e+00 8.314039324439484457e-02 0.000000000000000000e+00
Cu 1.107459257397434449e+00 1.805184710522370062e-01 0.000000000000000000e+00
Cu 1.091165022610206758e+00 2.787451873700512728e-01 0.000000000000000000e+00
Cu 1.073282621170102091e+00 3.775928432043266780e-01 0.000000000000000000e+00
Cu 1.054199596030240604e+00 4.771581883426341264e-01 0.000000000000000000e+00
Cu 1.038517727413983183e+00 5.778181400588602301e-01 0.000000000000000000e+00
Cu 1.021985368507731806e+00 6.798854283651246666e-01 0.000000000000000000e+00
Cu 1.613174104739286241e+00 6.842589312135943791e-01 0.000000000000000000e+00
Cu 1.603911086768224914e+00 7.878306152751227698e-01 0.000000000000000000e+00
Cu 1.597880610004277280e+00 8.900476261751859575e-01 0.000000000000000000e+00
Cu 1.239052985407742780e+00 1.005259307250633283e-01 0.000000000000000000e+00
Cu 1.221254422819023855e+00 1.989284884631013495e-01 0.000000000000000000e+00
Cu 1.201703485466892651e+00 2.983629801889441380e-01 0.000000000000000000e+00
Cu 1.180537661617000911e+00 3.993035051365723120e-01 0.000000000000000000e+00
Cu 1.759002624660916947e+00 3.815849378025005789e-01 0.000000000000000000e+00
Cu 1.740029230502661672e+00 4.846508746432156567e-01 0.000000000000000000e+00
Cu 1.733875101299370058e+00 5.890252715380499549e-01 0.000000000000000000e+00
Cu 1.723413187892046006e+00 6.915884571941176562e-01 0.000000000000000000e+00
Cu 1.716672277633399579e+00 7.928149029650278790e-01 0.000000000000000000e+00
Cu 1.712589634182544618e+00 8.929488629705720770e-01 0.000000000000000000e+00
Cu 1.352768486249109170e+00 1.211139223146446980e-01 0.000000000000000000e+00
Cu 1.331355408533602791e+00 2.204238619545723366e-01 0.000000000000000000e+00
Cu 1.308266143769590384e+00 3.214368598125421639e-01 0.000000000000000000e+00
Cu 1.883227469341233862e+00 2.922656187886579215e-01 0.000000000000000000e+00
Cu 1.866681092830862143e+00 3.951154593648903979e-01 0.000000000000000000e+00
Cu 1.857315927407744871e+00 4.960758612424132630e-01 0.000000000000000000e+00
Cu 1.845067403187155008e+00 5.957433052313925170e-01 0.000000000000000000e+00
Cu 1.838277588319190858e+00 6.962428828968890704e-01 0.000000000000000000e+00
Cu 1.833411372930604744e+00 7.952573355272811728e-01 0.000000000000000000e+00
Cu 1.831142884266384385e+00 8.934101107212220061e-01 0.000000000000000000e+00
Cu 1.462771931918586565e+00 1.448635383760754625e-01 0.000000000000000000e+00
Cu 1.437449597343712027e+00 2.454076684065742697e-01 0.000000000000000000e+00
Cu 2.011207780917810606e+00 2.051579589999884268e-01 0.000000000000000000e+00
Cu 1.993639075560675433e+00 3.061946651647946549e-01 0.000000000000000000e+00
Cu 1.981163406573619890e+00 4.053454447619409540e-01 0.000000000000000000e+00
Cu 1.971398994711157204e+00 5.038712606702336894e-01 0.000000000000000000e+00
Cu 1.963234856780204263e+00 6.017584220864472533e-01 0.000000000000000000e+00
Cu 1.957226269592033052e+00 6.986070756988977948e-01 0.000000000000000000e+00
Cu 1.953972987871129829e+00 7.954269226212425936e-01 0.000000000000000000e+00
Cu 1.953022402930204793e+00 8.917412438162196642e-01 0.000000000000000000e+00
Cu 1.568658382841518151e+00 1.729400432867210236e-01 0.000000000000000000e+00
Cu 2.140130021780775493e+00 1.203648463039484889e-01 0.000000000000000000e+00
Cu 2.123079793232059309e+00 2.202541027546359997e-01 0.000000000000000000e+00
Cu 2.110178254520491237e+00 3.177772737532567615e-01 0.000000000000000000e+00
Cu 2.099998549202052534e+00 4.138653420637994906e-01 0.000000000000000000e+00
Cu 2.091814546106240513e+00 5.093625002754867959e-01 0.000000000000000000e+00
Cu 2.085335049137566621e+00 6.044405708700897328e-01 0.000000000000000000e+00
Cu 2.080623157009953594e+00 6.991971087234302162e-01 0.000000000000000000e+00
Cu 2.078015139102129094e+00 7.938323120912141873e-01 0.000000000000000000e+00
Cu 2.077882887187037397e+00 8.884632346483957166e-01 0.000000000000000000e+00
Cu 2.266790407809801344e+00 3.609573771364726902e-02 0.000000000000000000e+00
Cu 2.252998923540559861e+00 1.354478301968995990e-01 0.000000000000000000e+00
Cu 2.241408897121691002e+00 2.317754944100816339e-01 0.000000000000000000e+00
Cu 2.231937695738964056e+00 3.263152067585466387e-01 0.000000000000000000e+00
Cu 2.224024494886332803e+00 4.198033888419973603e-01 0.000000000000000000e+00
Cu 2.217307780626312841e+00 5.127234799421722666e-01 0.000000000000000000e+00
Cu 2.211770419158350709e+00 6.054290474458574600e-01 0.000000000000000000e+00
Cu 2.207634649569349072e+00 6.981501967037263556e-01 0.000000000000000000e+00
Cu 2.205335359732730094e+00 7.910546855475194539e-01 0.000000000000000000e+00
Cu 2.205410348136028542e+00 8.841876429317618857e-01 0.000000000000000000e+00
Cu 2.380143545589332277e+00 4.803607801201153354e-02 0.000000000000000000e+00
Cu 2.372435219167178033e+00 1.450796375754028200e-01 0.000000000000000000e+00
Cu 2.365216848626735757e+00 2.393617180534809152e-01 0.000000000000000000e+00
Cu 2.358748934066617231e+00 3.318481439625796114e-01 0.000000000000000000e+00
Cu 2.352818667352853499e+00 4.233828855591385554e-01 0.000000000000000000e+00
Cu 2.347288121210402423e+00 5.144619294574991342e-01 0.000000000000000000e+00
Cu 2.342272298458521362e+00 6.053580384260964786e-01 0.000000000000000000e+00
Cu 2.338158351619981534e+00 6.963467541003915962e-01 0.000000000000000000e+00
Cu 2.335580229979941080e+00 7.877210984562618146e-01 0.000000000000000000e+00
Cu 2.335327122334870165e+00 8.796031858912296553e-01 0.000000000000000000e+00
Cu 2.500928742774937596e+00 5.632127231304153575e-02 0.000000000000000000e+00
Cu 2.497365973306080456e+00 1.510283397064501043e-01 0.000000000000000000e+00
Cu 2.493976941145299886e+00 2.436255397506441045e-01 0.000000000000000000e+00
Cu 2.490213721959893434e+00 3.346959160385298282e-01 0.000000000000000000e+00
Cu 2.485913049394418817e+00 4.251194477020230900e-01 0.000000000000000000e+00
Cu 2.481297347807998932e+00 5.152463937600969546e-01 0.000000000000000000e+00
Cu 2.476596764940238060e+00 6.050473252747786690e-01 0.000000000000000000e+00
Cu 2.472098251211598541e+00 6.946862393903368016e-01 0.000000000000000000e+00
Cu 2.468586842929332725e+00 7.847029840689945246e-01 0.000000000000000000e+00
Cu 2.467283630359655699e+00 8.755323279360103239e-01 0.000000000000000000e+00
Cu 2.627271738397230827e+00 6.143119292754600780e-02 0.000000000000000000e+00
Cu 2.627591505968252861e+00 1.541517919064624986e-01 0.000000000000000000e+00
Cu 2.627705747896075916e+00 2.450635372019525360e-01 0.000000000000000000e+00
Cu 2.626031429837163422e+00 3.353670741806622502e-01 0.000000000000000000e+00
Cu 2.622783291344950474e+00 4.256897873171897606e-01 0.000000000000000000e+00
Cu 2.618840710993263432e+00 5.157853144649336974e-01 0.000000000000000000e+00
Cu 2.614519192400003966e+00 6.054434978374584331e-01 0.000000000000000000e+00
Cu 2.609542582090903284e+00 6.943463339309032811e-01 0.000000000000000000e+00
Cu 2.604305442014920757e+00 7.831201703848943430e-01 0.000000000000000000e+00
Cu 2.600781498782058776e+00 8.731097868218324898e-01 0.000000000000000000e+00
Cu 2.757013924387524906e+00 6.229053832864412527e-02 0.000000000000000000e+00
Cu 2.763225842971625656e+00 1.535506490974912763e-01 0.000000000000000000e+00
Cu 2.766610266562282483e+00 2.435691034134413180e-01 0.000000000000000000e+00
Cu 2.765574836085692656e+00 3.347759213412290769e-01 0.000000000000000000e+00
Cu 2.762986854253168811e+00 4.259103159767573255e-01 0.000000000000000000e+00
Cu 2.759500859069942358e+00 5.167029275332837290e-01 0.000000000000000000e+00
Cu 2.755426885063328335e+00 6.070541299481283515e-01 0.000000000000000000e+00
Cu 2.750774933936232625e+00 6.968228597434955596e-01 0.000000000000000000e+00
Cu 2.743149851272038919e+00 7.849096674139964813e-01 0.000000000000000000e+00
Cu 2.734613094485323526e+00 8.742905270966239151e-01 0.000000000000000000e+00
Cu 2.884646650901090403e+00 5.107677024569758084e-02 0.000000000000000000e+00
Cu 2.906123918241975357e+00 1.460199777802686782e-01 0.000000000000000000e+00
Cu 2.908824078396774926e+00 2.408818963687643089e-01 0.000000000000000000e+00
Cu 2.908552611903810092e+00 3.343380676955915454e-01 0.000000000000000000e+00
Cu 2.906233591733889732e+00 4.267078669525518619e-01 0.000000000000000000e+00
Cu 2.903002529617772165e+00 5.183921445809803741e-01 0.000000000000000000e+00
Cu 2.899165420879270094e+00 6.097577168745665910e-01 0.000000000000000000e+00
Cu 2.894102605606903467e+00 7.013823396410137079e-01 0.000000000000000000e+00
Cu 2.887540879109857794e+00 7.940800321040005771e-01 0.000000000000000000e+00
Cu 2.863778464872417384e+00 8.869781674848593589e-01 0.000000000000000000e+00
