200

Cu 0.000000000000000000e+00 1.476345503966559718e-02 0.000000000000000000e+00
Cu 0.000000000000000000e+00 1.171124027314796173e-01 0.000000000000000000e+00
Cu 0.000000000000000000e+00 2.190431507626157959e-01 0.000000000000000000e+00
Cu 0.000000000000000000e+00 3.207950881989508063e-01 0.000000000000000000e+00
Cu 0.000000000000000000e+00 4.224957252148863196e-01 0.000000000000000000e+00
Cu 0.000000000000000000e+00 5.242036322176605312e-01 0.000000000000000000e+00
Cu 0.000000000000000000e+00 6.259629963956938603e-01 0.000000000000000000e+00
Cu 0.000000000000000000e+00 7.278259095143670976e-01 0.000000000000000000e+00
Cu 0.000000000000000000e+00 8.299054154610517875e-01 0.000000000000000000e+00
Cu 0.000000000000000000e+00 9.324177022631791045e-01 0.000000000000000000e+00
Cu 1.139406807822847534e-01 1.663931638860775483e-02 0.000000000000000000e+00
Cu 1.133191135157602808e-01 1.177571499395123483e-01 0.000000000000000000e+00
Cu 1.132469664762062456e-01 2.193170254164121813e-01 0.000000000000000000e+00
Cu 1.131999063183956461e-01 3.209303722560919447e-01 0.000000000000000000e+00
Cu 1.131473085303395520e-01 4.225463297794312956e-01 0.000000000000000000e+00
Cu 1.130854001907115741e-01 5.241841163501496093e-01 0.000000000000000000e+00
Cu 1.130171234577377753e-01 6.258637879288173611e-01 0.000000000000000000e+00
Cu 1.129514396695543432e-01 7.275969101335769684e-01 0.000000000000000000e+00
Cu 1.129211590852792491e-01 8.293272867536783943e-01 0.000000000000000000e+00
Cu 1.134239399320857572e-01 9.306805449284838438e-01 0.000000000000000000e+00
Cu 2.276426540041573132e-01 1.756155704742483337e-02 0.000000000000000000e+00
Cu 2.270598648369558659e-01 1.186398437777106407e-01 0.000000000000000000e+00
Cu 2.267164665576480997e-01 2.198499893912055914e-01 0.000000000000000000e+00
Cu 2.265543188673293795e-01 3.212378968691936287e-01 0.000000000000000000e+00
Cu 2.264204869587622126e-01 4.226946145694794876e-01 0.000000000000000000e+00
Cu 2.262909890530691859e-01 5.241920772460662015e-01 0.000000000000000000e+00
Cu 2.261771129568400929e-01 6.257195907371130295e-01 0.000000000000000000e+00
Cu 2.261128379300574864e-01 7.272340291705082782e-01 0.000000000000000000e+00
Cu 2.262394380401164806e-01 8.286260773933897816e-01 0.000000000000000000e+00
Cu 2.266089601111780927e-01 9.299451506271322332e-01 0.000000000000000000e+00
Cu 3.413155544551889076e-01 1.831006563350611599e-02 0.000000000000000000e+00
Cu 3.407896319319070333e-01 1.193618889517824716e-01 0.000000000000000000e+00
Cu 3.403911850835554254e-01 2.204775338321589007e-01 0.000000000000000000e+00
Cu 3.401166567468131841e-01 3.216794173895300979e-01 0.000000000000000000e+00
Cu 3.398980693139428966e-01 4.229431294623771098e-01 0.000000000000000000e+00
Cu 3.396901825521472240e-01 5.242408899996590099e-01 0.000000000000000000e+00
Cu 3.395298947778028209e-01 6.255701829165672967e-01 0.000000000000000000e+00
Cu 3.394752539982403006e-01 7.268908872383591513e-01 0.000000000000000000e+00
Cu 3.395483374744598937e-01 8.281809604965346683e-01 0.000000000000000000e+00
Cu 3.397456888411282128e-01 9.294788295238991527e-01 0.000000000000000000e+00
Cu 4.550392893291186902e-01 1.898852517144841018e-02 0.000000000000000000e+00
Cu 4.545513504819722050e-01 1.200053571587118562e-01 0.000000000000000000e+00
Cu 4.541628282048330578e-01 2.210702949516939464e-01 0.000000000000000000e+00
Cu 4.538682958556369829e-01 3.221799989007326781e-01 0.000000000000000000e+00
Cu 4.536281348986543338e-01 4.233021571379642078e-01 0.000000000000000000e+00
Cu 4.533510174595766773e-01 5.243736038884203587e-01 0.000000000000000000e+00
Cu 4.530780049770843365e-01 6.254673001338546534e-01 0.000000000000000000e+00
Cu 4.529344578991632564e-01 7.266648961194882572e-01 0.000000000000000000e+00
Cu 4.528896016161123028e-01 8.279287771447392252e-01 0.000000000000000000e+00
Cu 4.528890672900471315e-01 9.292180344332680031e-01 0.000000000000000000e+00
Cu 5.688586624920185519e-01 1.963422710256475592e-02 0.000000000000000000e+00
Cu 5.683958936744377688e-01 1.205952895416577825e-01 0.000000000000000000e+00
Cu 5.680294508047015745e-01 2.216088669821454082e-01 0.000000000000000000e+00
Cu 5.677606441047737817e-01 3.226655704247144429e-01 0.000000000000000000e+00
Cu 5.675634431140186287e-01 4.237300563167989420e-01 0.000000000000000000e+00
Cu 5.673714365527871006e-01 5.247188895700508615e-01 0.000000000000000000e+00
Cu 5.668950843568596465e-01 6.254652300071218418e-01 0.000000000000000000e+00
Cu 5.664248560365698903e-01 7.264754337892945779e-01 0.000000000000000000e+00
Cu 5.662462626747398753e-01 8.278657011952681444e-01 0.000000000000000000e+00
Cu 5.660664440933605990e-01 9.292630545259650265e-01 0.000000000000000000e+00
Cu 6.828183761093682413e-01 2.026108694976868144e-02 0.000000000000000000e+00
Cu 6.823688184562446413e-01 1.211424637805698923e-01 0.000000000000000000e+00
Cu 6.820172057184121783e-01 2.220847311905928545e-01 0.000000000000000000e+00
Cu 6.817730519190874361e-01 3.230845914130300311e-01 0.000000000000000000e+00
Cu 6.816387929946339241e-01 4.241288471889191336e-01 0.000000000000000000e+00
Cu 6.815569835209026595e-01 5.251698574584142687e-01 0.000000000000000000e+00
Cu 6.814665143126487079e-01 6.260683212412081478e-01 0.000000000000000000e+00
Cu 6.800312143394123821e-01 7.260743941334222296e-01 0.000000000000000000e+00
Cu 6.790651411841841512e-01 8.278684011371868490e-01 0.000000000000000000e+00
Cu 6.795646156400790838e-01 9.297353386327231739e-01 0.000000000000000000e+00
Cu 7.969651163934631244e-01 2.088173104288009244e-02 0.000000000000000000e+00
Cu 7.965168968712179609e-01 1.216576617144257549e-01 0.000000000000000000e+00
Cu 7.961667781595725968e-01 2.224993055285832966e-01 0.000000000000000000e+00
Cu 7.959314389538563184e-01 3.234087859505190843e-01 0.000000000000000000e+00
Cu 7.958187486764408680e-01 4.243923837188922632e-01 0.000000000000000000e+00
Cu 7.958481682321595363e-01 5.254669538471752332e-01 0.000000000000000000e+00
Cu 7.958598218928450985e-01 6.266541313129292412e-01 0.000000000000000000e+00
Cu 7.963117494879649039e-01 7.279793921064041662e-01 0.000000000000000000e+00
Cu 7.889591767976802394e-01 8.265710020831359417e-01 0.000000000000000000e+00
Cu 7.948533516483212713e-01 9.287063839322693415e-01 0.000000000000000000e+00
Cu 9.113452722121290206e-01 2.151113485847882742e-02 0.000000000000000000e+00
Cu 9.108881960992960547e-01 1.221561280143337175e-01 0.000000000000000000e+00
Cu 9.105312611515758991e-01 2.228639079009758772e-01 0.000000000000000000e+00
Cu 9.102923483854568065e-01 3.236335569321860950e-01 0.000000000000000000e+00
Cu 9.101922748015430775e-01 4.244715783056893232e-01 0.000000000000000000e+00
Cu 9.102262618993787191e-01 5.253969752410203586e-01 0.000000000000000000e+00
Cu 9.105505080572197096e-01 6.264347890576970057e-01 0.000000000000000000e+00
Cu 9.106768313761537392e-01 7.276108050368358393e-01 0.000000000000000000e+00
Cu 9.188054230841645742e-01 8.259780810903486481e-01 0.000000000000000000e+00
Cu 9.138503062543356092e-01 9.280137545905365881e-01 0.000000000000000000e+00
Cu 1.026000829176754392e+00 2.216559025720249085e-02 0.000000000000000000e+00
Cu 1.025529516927369267e+00 1.226565607974687000e-01 0.000000000000000000e+00
Cu 1.025167172267754667e+00 2.231966183966985762e-01 0.000000000000000000e+00
Cu 1.024935665647074279e+00 3.237719338564737925e-01 0.000000000000000000e+00
Cu 1.024859150622638770e+00 4.243698009845879304e-01 0.000000000000000000e+00
Cu 1.025009410303119761e+00 5.249524751213877627e-01 0.000000000000000000e+00
Cu 1.025438352041250001e+00 6.253935704472487478e-01 0.000000000000000000e+00
Cu 1.027459830555370379e+00 7.249450831155447306e-01 0.000000000000000000e+00
Cu 1.029222981907998546e+00 8.262988059561240384e-01 0.000000000000000000e+00
Cu 1.029717780655009296e+00 9.277434135156199524e-01 0.000000000000000000e+00
Cu 1.140964531383059644e+00 2.286063199585035635e-02 0.000000000000000000e+00
Cu 1.140481118509326652e+00 1.231798039938141742e-01 0.000000000000000000e+00
Cu 1.140128389473926696e+00 2.235219592988307580e-01 0.000000000000000000e+00
Cu 1.139928597088514461e+00 3.238549009567099901e-01 0.000000000000000000e+00
Cu 1.139926331998019737e+00 4.241440849148073178e-01 0.000000000000000000e+00
Cu 1.140193785007830085e+00 5.243316515284397461e-01 0.000000000000000000e+00
Cu 1.141015534238856599e+00 6.242864464789281698e-01 0.000000000000000000e+00
Cu 1.142084419717868338e+00 7.245394906227883292e-01 0.000000000000000000e+00
Cu 1.143092359428577343e+00 8.252143449253995788e-01 0.000000000000000000e+00
Cu 1.144297440656760534e+00 9.259107253835883178e-01 0.000000000000000000e+00
Cu 1.256253625846212252e+00 2.360826373577929252e-02 0.000000000000000000e+00
Cu 1.255771227645400279e+00 1.237471818140793572e-01 0.000000000000000000e+00
Cu 1.255455194714703904e+00 2.238718701153219193e-01 0.000000000000000000e+00
Cu 1.255320068609771633e+00 3.239347399244215664e-01 0.000000000000000000e+00
Cu 1.255398778787686132e+00 4.239064771309226098e-01 0.000000000000000000e+00
Cu 1.255765420922103859e+00 5.237779642317098583e-01 0.000000000000000000e+00
Cu 1.256374287523361222e+00 6.236995757382993721e-01 0.000000000000000000e+00
Cu 1.257108798873399103e+00 7.238097473144486926e-01 0.000000000000000000e+00
Cu 1.257995817278685813e+00 8.240744729076806552e-01 0.000000000000000000e+00
Cu 1.259070495060178763e+00 9.244088993093949602e-01 0.000000000000000000e+00
Cu 1.371863391030401891e+00 2.441129467944631870e-02 0.000000000000000000e+00
Cu 1.371410439058448283e+00 1.243746671639183038e-01 0.000000000000000000e+00
Cu 1.371172026027983604e+00 2.242784189124486238e-01 0.000000000000000000e+00
Cu 1.371130446465035346e+00 3.240698787348462173e-01 0.000000000000000000e+00
Cu 1.371280208020944968e+00 4.237479631735730501e-01 0.000000000000000000e+00
Cu 1.371597967988799960e+00 5.233897276312992064e-01 0.000000000000000000e+00
Cu 1.372042608433763577e+00 6.231084543072537008e-01 0.000000000000000000e+00
Cu 1.372614047679038718e+00 7.229690975682112608e-01 0.000000000000000000e+00
Cu 1.373352180951934898e+00 8.229734118780482888e-01 0.000000000000000000e+00
Cu 1.374273937893046860e+00 9.230860134996464739e-01 0.000000000000000000e+00
Cu 1.487762335351791476e+00 2.525261984480192679e-02 0.000000000000000000e+00
Cu 1.487390785776857349e+00 1.250592628641365167e-01 0.000000000000000000e+00
Cu 1.487290353427746625e+00 2.247531283220385034e-01 0.000000000000000000e+00
Cu 1.487385847365057634e+00 3.242845271946475094e-01 0.000000000000000000e+00
Cu 1.487598899147402731e+00 4.236843665838779249e-01 0.000000000000000000e+00
Cu 1.487864167564303397e+00 5.230494174531356011e-01 0.000000000000000000e+00
Cu 1.488165825459490277e+00 6.224930503197712017e-01 0.000000000000000000e+00
Cu 1.488549270447925732e+00 7.220962535448980368e-01 0.000000000000000000e+00
Cu 1.489089193000102451e+00 8.218851500319245273e-01 0.000000000000000000e+00
Cu 1.489857179126544029e+00 9.218160135651668474e-01 0.000000000000000000e+00
Cu 1.603890835697453721e+00 2.607950411543081062e-02 0.000000000000000000e+00
Cu 1.603690110125559398e+00 1.257591859238017806e-01 0.000000000000000000e+00
Cu 1.603822943432714032e+00 2.252578600756582894e-01 0.000000000000000000e+00
Cu 1.604130962527756443e+00 3.245401901223477492e-01 0.000000000000000000e+00
Cu 1.604454706555207277e+00 4.236637293743047428e-01 0.000000000000000000e+00
Cu 1.604683105375475316e+00 5.227412996208287144e-01 0.000000000000000000e+00
Cu 1.604808272093016352e+00 6.218993237451863054e-01 0.000000000000000000e+00
Cu 1.604926208017076528e+00 7.212442812878293585e-01 0.000000000000000000e+00
Cu 1.605184787554442938e+00 8.208275428981230970e-01 0.000000000000000000e+00
Cu 1.605736156388155589e+00 9.206101955674945714e-01 0.000000000000000000e+00
Cu 1.720159715970437819e+00 2.678405060747411984e-02 0.000000000000000000e+00
Cu 1.720283083724883033e+00 1.263716084777905813e-01 0.000000000000000000e+00
Cu 1.720798813995210175e+00 2.256779907379670991e-01 0.000000000000000000e+00
Cu 1.721428946345025635e+00 3.247216939552766135e-01 0.000000000000000000e+00
Cu 1.721920309747137168e+00 4.236236538367738613e-01 0.000000000000000000e+00
Cu 1.722122821124429715e+00 5.224973940764151559e-01 0.000000000000000000e+00
Cu 1.722030216146503978e+00 6.214256080695444995e-01 0.000000000000000000e+00
Cu 1.721780474046112674e+00 7.205190980545808088e-01 0.000000000000000000e+00
Cu 1.721616585705588287e+00 8.198940555836370381e-01 0.000000000000000000e+00
Cu 1.721809570124993805e+00 9.195635802363578692e-01 0.000000000000000000e+00
Cu 1.836437849394228161e+00 2.717304337998583535e-02 0.000000000000000000e+00
Cu 1.837161855986075398e+00 1.267011087201756203e-01 0.000000000000000000e+00
Cu 1.838288281921781397e+00 2.257897400737345073e-01 0.000000000000000000e+00
Cu 1.839333017405364368e+00 3.246354139369748149e-01 0.000000000000000000e+00
Cu 1.839984594627282810e+00 4.234838576827824053e-01 0.000000000000000000e+00
Cu 1.840169328250712777e+00 5.223791052317707795e-01 0.000000000000000000e+00
Cu 1.839881121924306973e+00 6.212473992459940364e-01 0.000000000000000000e+00
Cu 1.839182404232726942e+00 7.201309921604872599e-01 0.000000000000000000e+00
Cu 1.838376219897584818e+00 8.192721312778648013e-01 0.000000000000000000e+00
Cu 1.837941034498219883e+00 9.188625793375508888e-01 0.000000000000000000e+00
Cu 1.952502483364823460e+00 2.688480831558335768e-02 0.000000000000000000e+00
Cu 1.954394243503008388e+00 1.263739497614060348e-01 0.000000000000000000e+00
Cu 1.956431543205714885e+00 2.252052504079859463e-01 0.000000000000000000e+00
Cu 1.957817272684644561e+00 3.240652671889487912e-01 0.000000000000000000e+00
Cu 1.958507984423527803e+00 4.231938267955371313e-01 0.000000000000000000e+00
Cu 1.958681480462105107e+00 5.224209600126465958e-01 0.000000000000000000e+00
Cu 1.958331689981941182e+00 6.215653796514970519e-01 0.000000000000000000e+00
Cu 1.957269264089632310e+00 7.204552836481104006e-01 0.000000000000000000e+00
Cu 1.955528800060734484e+00 8.193268937465435497e-01 0.000000000000000000e+00
Cu 1.953904123741256438e+00 9.188624146206616494e-01 0.000000000000000000e+00
Cu 2.067893355400933775e+00 2.507723258435993682e-02 0.000000000000000000e+00
Cu 2.072312098075129505e+00 1.245180384597992518e-01 0.000000000000000000e+00
Cu 2.075267276238112135e+00 2.234710525311120466e-01 0.000000000000000000e+00
Cu 2.076631112599755635e+00 3.230250495851653136e-01 0.000000000000000000e+00
Cu 2.077291739337307597e+00 4.227781276924680864e-01 0.000000000000000000e+00
Cu 2.077458708992266256e+00 5.225831739838329160e-01 0.000000000000000000e+00
Cu 2.077126544847184064e+00 6.223518368833453884e-01 0.000000000000000000e+00
Cu 2.076074515836087375e+00 7.219338972976767632e-01 0.000000000000000000e+00
Cu 2.073403475576209853e+00 8.209230915243399540e-01 0.000000000000000000e+00
Cu 2.069235947844016987e+00 9.204008118081462575e-01 0.000000000000000000e+00
Cu 2.181458912899577829e+00 1.798731300118329435e-02 0.000000000000000000e+00
Cu 2.191188263154785432e+00 1.197662258003610036e-01 0.000000000000000000e+00
Cu 2.194097843862988562e+00 2.210587947536904185e-01 0.000000000000000000e+00
Cu 2.195552608754330226e+00 3.218335128401190182e-01 0.000000000000000000e+00
Cu 2.196218096754190441e+00 4.223307108416681777e-01 0.000000000000000000e+00
Cu 2.196381033729335908e+00 5.227570022809184813e-01 0.000000000000000000e+00
Cu 2.196036970953351819e+00 6.232738115964937542e-01 0.000000000000000000e+00
Cu 2.194890417239888425e+00 7.240841603356182876e-01 0.000000000000000000e+00
Cu 2.192266463052441328e+00 8.254203849080845590e-01 0.000000000000000000e+00
Cu 2.182790986867112704e+00 9.272461531140669955e-01 0.000000000000000000e+00
