200

Cu 0.000000000000000000e+00 2.903425349174061296e-02 0.000000000000000000e+00
Cu 0.000000000000000000e+00 1.286725617039483904e-01 0.000000000000000000e+00
Cu 0.000000000000000000e+00 2.274838354764816550e-01 0.000000000000000000e+00
Cu 0.000000000000000000e+00 3.259232963161243779e-01 0.000000000000000000e+00
Cu 0.000000000000000000e+00 4.242408037712974700e-01 0.000000000000000000e+00
Cu 0.000000000000000000e+00 5.225599891356386140e-01 0.000000000000000000e+00
Cu 0.000000000000000000e+00 6.209786831710221167e-01 0.000000000000000000e+00
Cu 0.000000000000000000e+00 7.196078379734606179e-01 0.000000000000000000e+00
Cu 0.000000000000000000e+00 8.186706513086914327e-01 0.000000000000000000e+00
Cu 0.000000000000000000e+00 9.185807628619365728e-01 0.000000000000000000e+00
Cu 1.214923873667864140e-01 3.237374370328098550e-02 0.000000000000000000e+00
Cu 1.205009836124520395e-01 1.298229219703135873e-01 0.000000000000000000e+00
Cu 1.204299106528180507e-01 2.279668850986280582e-01 0.000000000000000000e+00
Cu 1.203766490830931180e-01 3.261584608512723693e-01 0.000000000000000000e+00
Cu 1.203019692052491318e-01 4.243262171503506264e-01 0.000000000000000000e+00
Cu 1.201981147607256994e-01 5.225215661375005594e-01 0.000000000000000000e+00
Cu 1.200717399756403847e-01 6.207981197347706148e-01 0.000000000000000000e+00
Cu 1.199415232879100235e-01 7.191935667569824275e-01 0.000000000000000000e+00
Cu 1.198523743374663303e-01 8.176236208555118790e-01 0.000000000000000000e+00
Cu 1.206715693160982095e-01 9.154526169018022408e-01 0.000000000000000000e+00
Cu 2.425580031661939695e-01 3.396720765819796761e-02 0.000000000000000000e+00
Cu 2.416900565303802262e-01 1.313122967259314766e-01 0.000000000000000000e+00
Cu 2.412012318062534133e-01 2.288583834588164279e-01 0.000000000000000000e+00
Cu 2.409896491084175252e-01 3.266690419266591872e-01 0.000000000000000000e+00
Cu 2.407949812371190934e-01 4.245695230331513748e-01 0.000000000000000000e+00
Cu 2.405792057915519810e-01 5.225272903281442671e-01 0.000000000000000000e+00
Cu 2.403628780595009895e-01 6.205428198547440211e-01 0.000000000000000000e+00
Cu 2.402057718805845898e-01 7.185629036911500567e-01 0.000000000000000000e+00
Cu 2.403558229333220553e-01 8.164114734445386823e-01 0.000000000000000000e+00
Cu 2.409085526636297048e-01 9.141529625544956295e-01 0.000000000000000000e+00
Cu 3.635476488820334473e-01 3.514989322664830579e-02 0.000000000000000000e+00
Cu 3.628182948976448885e-01 1.324699004702121763e-01 0.000000000000000000e+00
Cu 3.622713460894333437e-01 2.298627146244229813e-01 0.000000000000000000e+00
Cu 3.619002450012702710e-01 3.273758834903949255e-01 0.000000000000000000e+00
Cu 3.615852841777381643e-01 4.249705473180557247e-01 0.000000000000000000e+00
Cu 3.612437682629052182e-01 5.226060868401345427e-01 0.000000000000000000e+00
Cu 3.609337127599767103e-01 6.202954657671874150e-01 0.000000000000000000e+00
Cu 3.607617659191281190e-01 7.179940803738374955e-01 0.000000000000000000e+00
Cu 3.607892647495717364e-01 8.156784979618300069e-01 0.000000000000000000e+00
Cu 3.610242950570731191e-01 9.134121744967331757e-01 0.000000000000000000e+00
Cu 4.845611088570606628e-01 3.613749150854689285e-02 0.000000000000000000e+00
Cu 4.839392480872108382e-01 1.334325474386144628e-01 0.000000000000000000e+00
Cu 4.834415139241842740e-01 2.307685769016986355e-01 0.000000000000000000e+00
Cu 4.830581862045379982e-01 3.281520295417540978e-01 0.000000000000000000e+00
Cu 4.827258097658669311e-01 4.255419858953164991e-01 0.000000000000000000e+00
Cu 4.822792902097438605e-01 5.228345738183212132e-01 0.000000000000000000e+00
Cu 4.817731891859154403e-01 6.201503491492857956e-01 0.000000000000000000e+00
Cu 4.814188645468355232e-01 7.176543292980059885e-01 0.000000000000000000e+00
Cu 4.811983135816938484e-01 8.153133252862401203e-01 0.000000000000000000e+00
Cu 4.810660045925501671e-01 9.130793933576206722e-01 0.000000000000000000e+00
Cu 6.056463098512825383e-01 3.699691011551237835e-02 0.000000000000000000e+00
Cu 6.051134983841888193e-01 1.342486792827121134e-01 0.000000000000000000e+00
Cu 6.046878430411325445e-01 2.315440909771798728e-01 0.000000000000000000e+00
Cu 6.043704674340540928e-01 3.288802928097254719e-01 0.000000000000000000e+00
Cu 6.041126755411854177e-01 4.262115923923505689e-01 0.000000000000000000e+00
Cu 6.038278805938559479e-01 5.234208886144213757e-01 0.000000000000000000e+00
Cu 6.029778162368336636e-01 6.202084233874124441e-01 0.000000000000000000e+00
Cu 6.020612306935427815e-01 7.174164071429893763e-01 0.000000000000000000e+00
Cu 6.015479628976606596e-01 8.153147849225090837e-01 0.000000000000000000e+00
Cu 6.010216088852584626e-01 9.133051745676472599e-01 0.000000000000000000e+00
Cu 7.268502729851777922e-01 3.775074217114818276e-02 0.000000000000000000e+00
Cu 7.263905741137048899e-01 1.349341405423485629e-01 0.000000000000000000e+00
Cu 7.260304571532519846e-01 2.321728396408870021e-01 0.000000000000000000e+00
Cu 7.257801604121540962e-01 3.294737449688582287e-01 0.000000000000000000e+00
Cu 7.256452472051964087e-01 4.268284744492621963e-01 0.000000000000000000e+00
Cu 7.255072808092123404e-01 5.241690255381574737e-01 0.000000000000000000e+00
Cu 7.253896758850867377e-01 6.213108138953757908e-01 0.000000000000000000e+00
Cu 7.227375276508667401e-01 7.168794713802250085e-01 0.000000000000000000e+00
Cu 7.209794778634992518e-01 8.154807492069313657e-01 0.000000000000000000e+00
Cu 7.212579703370199935e-01 9.144085298943550599e-01 0.000000000000000000e+00
Cu 8.482241812902182598e-01 3.841516857206195984e-02 0.000000000000000000e+00
Cu 8.478222379918777252e-01 1.355009308979597260e-01 0.000000000000000000e+00
Cu 8.475089396483922455e-01 2.326491076561535698e-01 0.000000000000000000e+00
Cu 8.473085200459826716e-01 3.298766283004332389e-01 0.000000000000000000e+00
Cu 8.472232376300652401e-01 4.272065186566574302e-01 0.000000000000000000e+00
Cu 8.473100970059620485e-01 5.246808054025058343e-01 0.000000000000000000e+00
Cu 8.471842607150784632e-01 6.223445047604827529e-01 0.000000000000000000e+00
Cu 8.482158613264985103e-01 7.203508818814529091e-01 0.000000000000000000e+00
Cu 8.346828025726561462e-01 8.135389877198193620e-01 0.000000000000000000e+00
Cu 8.446236372897361067e-01 9.130810445538611875e-01 0.000000000000000000e+00
Cu 9.698210465727640228e-01 3.900956826933784510e-02 0.000000000000000000e+00
Cu 9.694627145029820481e-01 1.359675913031515027e-01 0.000000000000000000e+00
Cu 9.691853571820094881e-01 2.329834076734494941e-01 0.000000000000000000e+00
Cu 9.690130872341419233e-01 3.300696339787339006e-01 0.000000000000000000e+00
Cu 9.689828766525867554e-01 4.272495886234218831e-01 0.000000000000000000e+00
Cu 9.690569334250105360e-01 5.245686342567883464e-01 0.000000000000000000e+00
Cu 9.696151666893603194e-01 6.220767391648915901e-01 0.000000000000000000e+00
Cu 9.692408601604100005e-01 7.199377868201856101e-01 0.000000000000000000e+00
Cu 9.835773933818643400e-01 8.128461171239848015e-01 0.000000000000000000e+00
Cu 9.746256826096244552e-01 9.123378788979505938e-01 0.000000000000000000e+00
Cu 1.091689259346250607e+00 3.955727980678205857e-02 0.000000000000000000e+00
Cu 1.091365870444388486e+00 1.363604885307787562e-01 0.000000000000000000e+00
Cu 1.091124598438768523e+00 2.332012691028519935e-01 0.000000000000000000e+00
Cu 1.090999888190007594e+00 3.300713874396532521e-01 0.000000000000000000e+00
Cu 1.091021785028867486e+00 4.269626610471989325e-01 0.000000000000000000e+00
Cu 1.091327545400569754e+00 5.238219848490108799e-01 0.000000000000000000e+00
Cu 1.091876863233717243e+00 6.204863752334386362e-01 0.000000000000000000e+00
Cu 1.095193997160966326e+00 7.155789249770406757e-01 0.000000000000000000e+00
Cu 1.097809436717503084e+00 8.137192695480741644e-01 0.000000000000000000e+00
Cu 1.098570643189363150e+00 9.122143561624656005e-01 0.000000000000000000e+00
Cu 1.213865377890462227e+00 4.008401540818485459e-02 0.000000000000000000e+00
Cu 1.213575368993327075e+00 1.367131660070226573e-01 0.000000000000000000e+00
Cu 1.213388740979394642e+00 2.333437486676229189e-01 0.000000000000000000e+00
Cu 1.213339614883004680e+00 3.299392566362858159e-01 0.000000000000000000e+00
Cu 1.213500436431075080e+00 4.264537363663281622e-01 0.000000000000000000e+00
Cu 1.213961226047502340e+00 5.228077655669592927e-01 0.000000000000000000e+00
Cu 1.215253202136439059e+00 6.187537318154289201e-01 0.000000000000000000e+00
Cu 1.216858346358669296e+00 7.151678552594561422e-01 0.000000000000000000e+00
Cu 1.218281255449156220e+00 8.123299883146368749e-01 0.000000000000000000e+00
Cu 1.219876735032405790e+00 9.096079389071570764e-01 0.000000000000000000e+00
Cu 1.336364677350824426e+00 4.061463524809818398e-02 0.000000000000000000e+00
Cu 1.336117757866744693e+00 1.370640210342937426e-01 0.000000000000000000e+00
Cu 1.336014796838832508e+00 2.334673392788733370e-01 0.000000000000000000e+00
Cu 1.336083274044339797e+00 3.297648547841486866e-01 0.000000000000000000e+00
Cu 1.336372190507081337e+00 4.259177366728060243e-01 0.000000000000000000e+00
Cu 1.337015297874249775e+00 5.219000981155736962e-01 0.000000000000000000e+00
Cu 1.337951593676593331e+00 6.179440650685155134e-01 0.000000000000000000e+00
Cu 1.338989798129968767e+00 7.142970719120955714e-01 0.000000000000000000e+00
Cu 1.340143497623624169e+00 8.109317866576359890e-01 0.000000000000000000e+00
Cu 1.341421940548596314e+00 9.077369515524862376e-01 0.000000000000000000e+00
Cu 1.459172850210079364e+00 4.116514914711707357e-02 0.000000000000000000e+00
Cu 1.458994330100668702e+00 1.374474683388769158e-01 0.000000000000000000e+00
Cu 1.459018505740466987e+00 2.336300619863171668e-01 0.000000000000000000e+00
Cu 1.459229251348541201e+00 3.296468418360505304e-01 0.000000000000000000e+00
Cu 1.459631128503352082e+00 4.254952913187097785e-01 0.000000000000000000e+00
Cu 1.460199676172534211e+00 5.212842727727974301e-01 0.000000000000000000e+00
Cu 1.460870784812238643e+00 6.171865237717775177e-01 0.000000000000000000e+00
Cu 1.461628391032537611e+00 7.133098081090991638e-01 0.000000000000000000e+00
Cu 1.462506924602142044e+00 8.096701161210886344e-01 0.000000000000000000e+00
Cu 1.463506055881208967e+00 9.062211868271486948e-01 0.000000000000000000e+00
Cu 1.582239914260883173e+00 4.172738072369924084e-02 0.000000000000000000e+00
Cu 1.582182207943819696e+00 1.378742444400228861e-01 0.000000000000000000e+00
Cu 1.582396714894416911e+00 2.338623639558531919e-01 0.000000000000000000e+00
Cu 1.582792675080728628e+00 3.296300104371837070e-01 0.000000000000000000e+00
Cu 1.583274445063485691e+00 4.252213353813063534e-01 0.000000000000000000e+00
Cu 1.583756904418270439e+00 5.207694108931036903e-01 0.000000000000000000e+00
Cu 1.584211379406722298e+00 6.164306667965093744e-01 0.000000000000000000e+00
Cu 1.584684279832756060e+00 7.123192749433872040e-01 0.000000000000000000e+00
Cu 1.585259499133297778e+00 8.084757607892434361e-01 0.000000000000000000e+00
Cu 1.586017111844578720e+00 9.048439421967375829e-01 0.000000000000000000e+00
Cu 1.705478822377435533e+00 4.224682953163220317e-02 0.000000000000000000e+00
Cu 1.705639670665487717e+00 1.383048321682059101e-01 0.000000000000000000e+00
Cu 1.706150914978427302e+00 2.341289283137254762e-01 0.000000000000000000e+00
Cu 1.706811632671472401e+00 3.296756210247672736e-01 0.000000000000000000e+00
Cu 1.707421826017029742e+00 4.250228693741489594e-01 0.000000000000000000e+00
Cu 1.707840442652764690e+00 5.203182250392877073e-01 0.000000000000000000e+00
Cu 1.708050753838419533e+00 6.157249122792399776e-01 0.000000000000000000e+00
Cu 1.708163233747449494e+00 7.113811154117959390e-01 0.000000000000000000e+00
Cu 1.708355827741756539e+00 8.073550996730101126e-01 0.000000000000000000e+00
Cu 1.708816921381736798e+00 9.035958634012754009e-01 0.000000000000000000e+00
Cu 1.828762291598941214e+00 4.259628988641888520e-02 0.000000000000000000e+00
Cu 1.829319084027112519e+00 1.386207064230945696e-01 0.000000000000000000e+00
Cu 1.830303423363333959e+00 2.342970845786166434e-01 0.000000000000000000e+00
Cu 1.831357913790724989e+00 3.296444307105365623e-01 0.000000000000000000e+00
Cu 1.832165238473118851e+00 4.248174490035939721e-01 0.000000000000000000e+00
Cu 1.832537725302026743e+00 5.199613483655364243e-01 0.000000000000000000e+00
Cu 1.832461754467908044e+00 6.151810535555288784e-01 0.000000000000000000e+00
Cu 1.832099738534456623e+00 7.106168835000626904e-01 0.000000000000000000e+00
Cu 1.831749259629865678e+00 8.064153501702185922e-01 0.000000000000000000e+00
Cu 1.831754437823029047e+00 9.025860499362853284e-01 0.000000000000000000e+00
Cu 1.951902939864543551e+00 4.253665281800100145e-02 0.000000000000000000e+00
Cu 1.953187940182188109e+00 1.385857384906472312e-01 0.000000000000000000e+00
Cu 1.954929213260846232e+00 2.340948073723139178e-01 0.000000000000000000e+00
Cu 1.956500162006659327e+00 3.292964509266986251e-01 0.000000000000000000e+00
Cu 1.957501779877310888e+00 4.245014821433472085e-01 0.000000000000000000e+00
Cu 1.957842572431853334e+00 5.197700205355068048e-01 0.000000000000000000e+00
Cu 1.957509408408287133e+00 6.150106451637968874e-01 0.000000000000000000e+00
Cu 1.956569806584093296e+00 7.102801313365478819e-01 0.000000000000000000e+00
Cu 1.955405577091513747e+00 8.058832207986873497e-01 0.000000000000000000e+00
Cu 1.954632365625247781e+00 9.020449800252609007e-01 0.000000000000000000e+00
Cu 2.074576294760803297e+00 4.161349486339070008e-02 0.000000000000000000e+00
Cu 2.077294963201582245e+00 1.377391580664911741e-01 0.000000000000000000e+00
Cu 2.080201767569576088e+00 2.330325677636520820e-01 0.000000000000000000e+00
Cu 2.082223772427712838e+00 3.283479751571909966e-01 0.000000000000000000e+00
Cu 2.083277051634838006e+00 4.240058415681859372e-01 0.000000000000000000e+00
Cu 2.083598293207482577e+00 5.197864190069878543e-01 0.000000000000000000e+00
Cu 2.083174282744069572e+00 6.154730214389645404e-01 0.000000000000000000e+00
Cu 2.081743355583588695e+00 7.108426452893256142e-01 0.000000000000000000e+00
Cu 2.079370242746147568e+00 8.062090838133879611e-01 0.000000000000000000e+00
Cu 2.077121013695917284e+00 9.024198826460505529e-01 0.000000000000000000e+00
Cu 2.196065306831668895e+00 3.874643813834255379e-02 0.000000000000000000e+00
Cu 2.202030204618854015e+00 1.349741090491591577e-01 0.000000000000000000e+00
Cu 2.206226161101603189e+00 2.304830680393494258e-01 0.000000000000000000e+00
Cu 2.208226770845516107e+00 3.267994081988255251e-01 0.000000000000000000e+00
Cu 2.209267426113919353e+00 4.233500110438962460e-01 0.000000000000000000e+00
Cu 2.209577912017179901e+00 5.199646526818539893e-01 0.000000000000000000e+00
Cu 2.209146126631150509e+00 6.165449020418343196e-01 0.000000000000000000e+00
Cu 2.207717368477210229e+00 7.129140975381258460e-01 0.000000000000000000e+00
Cu 2.204031604160571867e+00 8.084917540496672217e-01 0.000000000000000000e+00
Cu 2.198502470759867489e+00 9.047889240303692571e-01 0.000000000000000000e+00
Cu 2.314296157351033667e+00 2.891151697504617049e-02 0.000000000000000000e+00
Cu 2.328036576194705276e+00 1.283223342805092926e-01 0.000000000000000000e+00
Cu 2.332092886265378251e+00 2.270679738199141151e-01 0.000000000000000000e+00
Cu 2.334281707943564932e+00 3.250560031422792262e-01 0.000000000000000000e+00
Cu 2.335332822795874286e+00 4.226534145440835610e-01 0.000000000000000000e+00
Cu 2.335637150678189666e+00 5.201583674950098768e-01 0.000000000000000000e+00
Cu 2.335184476403730169e+00 6.177950589589811248e-01 0.000000000000000000e+00
Cu 2.333563874770004709e+00 7.158547288520105134e-01 0.000000000000000000e+00
Cu 2.330023354065331009e+00 8.146874403423114419e-01 0.000000000000000000e+00
Cu 2.316723516464120891e+00 9.141964254884978880e-01 0.000000000000000000e+00
