200

Cu 0.000000000000000000e+00 2.079511166253231180e-02 0.000000000000000000e+00
Cu 0.000000000000000000e+00 1.219961610344703351e-01 0.000000000000000000e+00
Cu 0.000000000000000000e+00 2.226051381225918613e-01 0.000000000000000000e+00
Cu 0.000000000000000000e+00 3.229531528408354224e-01 0.000000000000000000e+00
Cu 0.000000000000000000e+00 4.232201637252213655e-01 0.000000000000000000e+00
Cu 0.000000000000000000e+00 5.234924103833435982e-01 0.000000000000000000e+00
Cu 0.000000000000000000e+00 6.238367635770856179e-01 0.000000000000000000e+00
Cu 0.000000000000000000e+00 7.243304122752609597e-01 0.000000000000000000e+00
Cu 0.000000000000000000e+00 8.251336969990546999e-01 0.000000000000000000e+00
Cu 0.000000000000000000e+00 9.265468691067545448e-01 0.000000000000000000e+00
Cu 1.171676692733537584e-01 2.331194540544700294e-02 0.000000000000000000e+00
Cu 1.163741395342898638e-01 1.228615630340528925e-01 0.000000000000000000e+00
Cu 1.162992763825012044e-01 2.229703936895933714e-01 0.000000000000000000e+00
Cu 1.162485166451093926e-01 3.231324355734094822e-01 0.000000000000000000e+00
Cu 1.161856073325107791e-01 4.232866154605000042e-01 0.000000000000000000e+00
Cu 1.161051185243809902e-01 5.234655681471307442e-01 0.000000000000000000e+00
Cu 1.160114507469192785e-01 6.237033214183177465e-01 0.000000000000000000e+00
Cu 1.159175104655561367e-01 7.240222143002048583e-01 0.000000000000000000e+00
Cu 1.158630225972853561e-01 8.243529424837412467e-01 0.000000000000000000e+00
Cu 1.165109259100224059e-01 9.242039018105809856e-01 0.000000000000000000e+00
Cu 2.340111644615608388e-01 2.452883170411340741e-02 0.000000000000000000e+00
Cu 2.332919583552350573e-01 1.240154879962787476e-01 0.000000000000000000e+00
Cu 2.328773260475925089e-01 2.236640455736645383e-01 0.000000000000000000e+00
Cu 2.326896353003659046e-01 3.235313876999615368e-01 0.000000000000000000e+00
Cu 2.325272613343428718e-01 4.234784989819341816e-01 0.000000000000000000e+00
Cu 2.323594143020849545e-01 5.234744737041588936e-01 0.000000000000000000e+00
Cu 2.322013484307006437e-01 6.235124692573619232e-01 0.000000000000000000e+00
Cu 2.320985199942165733e-01 7.235434045819445492e-01 0.000000000000000000e+00
Cu 2.322396502320768774e-01 8.234275710297462858e-01 0.000000000000000000e+00
Cu 2.326954584886879174e-01 9.232250046578414082e-01 0.000000000000000000e+00
Cu 3.508023580562524280e-01 2.547289328588108956e-02 0.000000000000000000e+00
Cu 3.501766433222427422e-01 1.249346326726512579e-01 0.000000000000000000e+00
Cu 3.497045669047233463e-01 2.244637658392689139e-01 0.000000000000000000e+00
Cu 3.493816369549414547e-01 3.240947206778475587e-01 0.000000000000000000e+00
Cu 3.491170838551898581e-01 4.237975035041207650e-01 0.000000000000000000e+00
Cu 3.488493223995883241e-01 5.235386756290053567e-01 0.000000000000000000e+00
Cu 3.486252418897416994e-01 6.233215950967461172e-01 0.000000000000000000e+00
Cu 3.485238006158126733e-01 7.231021804232977690e-01 0.000000000000000000e+00
Cu 3.485819178796044637e-01 8.228574304815746698e-01 0.000000000000000000e+00
Cu 3.487991624662861168e-01 9.226391415107420002e-01 0.000000000000000000e+00
Cu 4.676322041049572054e-01 2.629405608275169060e-02 0.000000000000000000e+00
Cu 4.670756683916014174e-01 1.257254001147111444e-01 0.000000000000000000e+00
Cu 4.666311105597361064e-01 2.252014390227946583e-01 0.000000000000000000e+00
Cu 4.662915130739400671e-01 3.247234054386459179e-01 0.000000000000000000e+00
Cu 4.660062868877118958e-01 4.242550478502348232e-01 0.000000000000000000e+00
Cu 4.656525424237270006e-01 5.237158198177032098e-01 0.000000000000000000e+00
Cu 4.652789412412404180e-01 6.232010820115797545e-01 0.000000000000000000e+00
Cu 4.650494381283578615e-01 7.228279286458330066e-01 0.000000000000000000e+00
Cu 4.649342184460648619e-01 8.225582110060311036e-01 0.000000000000000000e+00
Cu 4.648771155383152887e-01 9.223476986096350583e-01 0.000000000000000000e+00
Cu 5.845479166825812145e-01 2.704209704746688911e-02 0.000000000000000000e+00
Cu 5.840451440539480288e-01 1.264225103682881657e-01 0.000000000000000000e+00
Cu 5.836452308203178285e-01 2.258514610407733325e-01 0.000000000000000000e+00
Cu 5.833495270533458621e-01 3.253224470681884695e-01 0.000000000000000000e+00
Cu 5.831227640610576746e-01 4.247954655699008875e-01 0.000000000000000000e+00
Cu 5.828864156341214686e-01 5.241707003505311491e-01 0.000000000000000000e+00
Cu 5.822469836889369033e-01 6.232254921101217926e-01 0.000000000000000000e+00
Cu 5.815855361111428312e-01 7.226180277198354096e-01 0.000000000000000000e+00
Cu 5.812712776928677938e-01 8.225266900452220531e-01 0.000000000000000000e+00
Cu 5.809435301339549440e-01 9.224755242890591012e-01 0.000000000000000000e+00
Cu 7.015962721833991500e-01 2.773456315151112683e-02 0.000000000000000000e+00
Cu 7.011333991019759182e-01 1.270389395033922064e-01 0.000000000000000000e+00
Cu 7.007708752459144153e-01 2.264017108771372577e-01 0.000000000000000000e+00
Cu 7.005191745447439944e-01 3.258241561221416616e-01 0.000000000000000000e+00
Cu 7.003816553500706865e-01 4.252950838492757235e-01 0.000000000000000000e+00
Cu 7.002771782027918945e-01 5.247580302728573898e-01 0.000000000000000000e+00
Cu 7.001661937495656796e-01 6.240491729151028677e-01 0.000000000000000000e+00
Cu 6.982110241263586037e-01 7.221550315470446346e-01 0.000000000000000000e+00
Cu 6.968920886853395835e-01 8.226033928593075029e-01 0.000000000000000000e+00
Cu 6.973333376942882911e-01 9.232200451289022114e-01 0.000000000000000000e+00
Cu 8.188269445897754517e-01 2.838582304748372975e-02 0.000000000000000000e+00
Cu 8.183903294546976959e-01 1.275863157169330464e-01 0.000000000000000000e+00
Cu 8.180493526384663427e-01 2.268510140059166735e-01 0.000000000000000000e+00
Cu 8.178242056675634197e-01 3.261886127398677671e-01 0.000000000000000000e+00
Cu 8.177216419868689190e-01 4.256129068302181850e-01 0.000000000000000000e+00
Cu 8.177739144571390950e-01 5.251517532487193218e-01 0.000000000000000000e+00
Cu 8.177378293357403516e-01 6.248376865377843759e-01 0.000000000000000000e+00
Cu 8.184030319844400880e-01 7.247420573666204513e-01 0.000000000000000000e+00
Cu 8.084244507347791986e-01 8.210203902475048388e-01 0.000000000000000000e+00
Cu 8.160815848808210538e-01 9.220456106902005233e-01 0.000000000000000000e+00
Cu 9.362900534491459537e-01 2.901301595465694341e-02 0.000000000000000000e+00
Cu 9.358676570127529848e-01 1.280817002277034322e-01 0.000000000000000000e+00
Cu 9.355384967678596064e-01 2.272109033814615764e-01 0.000000000000000000e+00
Cu 9.353237269178997781e-01 3.264057147412198212e-01 0.000000000000000000e+00
Cu 9.352505921406640832e-01 4.256801922158533480e-01 0.000000000000000000e+00
Cu 9.353039167595540437e-01 5.250648421824943846e-01 0.000000000000000000e+00
Cu 9.357224467802592871e-01 6.245964146586437948e-01 0.000000000000000000e+00
Cu 9.356784607849371049e-01 7.243503616098646569e-01 0.000000000000000000e+00
Cu 9.464558630880054446e-01 8.203788460310679209e-01 0.000000000000000000e+00
Cu 9.397759437945247818e-01 9.213244818593686603e-01 0.000000000000000000e+00
Cu 1.054031061864632246e+00 2.963556249034568837e-02 0.000000000000000000e+00
Cu 1.053616033974113408e+00 1.285472718714059659e-01 0.000000000000000000e+00
Cu 1.053299731755121149e+00 2.275028720747485633e-01 0.000000000000000000e+00
Cu 1.053109603706452235e+00 3.264910277138184380e-01 0.000000000000000000e+00
Cu 1.053073634964745375e+00 4.255009355032026153e-01 0.000000000000000000e+00
Cu 1.053289671374532999e+00 5.244882769150525093e-01 0.000000000000000000e+00
Cu 1.053784582812116177e+00 6.233058520990469864e-01 0.000000000000000000e+00
Cu 1.056368964965178181e+00 7.209405399223508537e-01 0.000000000000000000e+00
Cu 1.058523477268307422e+00 8.209316118275266083e-01 0.000000000000000000e+00
Cu 1.059112564691660818e+00 9.211138551474673530e-01 0.000000000000000000e+00
Cu 1.172084858621214920e+00 3.027320609542510574e-02 0.000000000000000000e+00
Cu 1.171677964374715719e+00 1.290092318230319779e-01 0.000000000000000000e+00
Cu 1.171391307622897893e+00 2.277583777068474258e-01 0.000000000000000000e+00
Cu 1.171252890686360626e+00 3.264863409672069117e-01 0.000000000000000000e+00
Cu 1.171319642931959448e+00 4.251534346681932197e-01 0.000000000000000000e+00
Cu 1.171675400812675294e+00 5.236909494350573402e-01 0.000000000000000000e+00
Cu 1.172707527512846681e+00 6.219195403347727025e-01 0.000000000000000000e+00
Cu 1.174016630354882018e+00 7.205260589067037369e-01 0.000000000000000000e+00
Cu 1.175208677841160343e+00 8.196975008995086576e-01 0.000000000000000000e+00
Cu 1.176597133807446127e+00 9.189273390410878095e-01 0.000000000000000000e+00
Cu 1.290468114187036663e+00 3.094309774530588919e-02 0.000000000000000000e+00
Cu 1.290081399305506027e+00 1.294960080914470957e-01 0.000000000000000000e+00
Cu 1.289853061989485461e+00 2.280197107385763255e-01 0.000000000000000000e+00
Cu 1.289803645785618791e+00 3.264608844610624727e-01 0.000000000000000000e+00
Cu 1.289974362118647022e+00 4.247857001584310899e-01 0.000000000000000000e+00
Cu 1.290464893160353066e+00 5.229788760970013328e-01 0.000000000000000000e+00
Cu 1.291221136635704925e+00 6.212293477955217469e-01 0.000000000000000000e+00
Cu 1.292092490164952201e+00 7.197229485628585666e-01 0.000000000000000000e+00
Cu 1.293103784732152262e+00 8.184258334034848481e-01 0.000000000000000000e+00
Cu 1.294283559097713754e+00 9.172405110124443040e-01 0.000000000000000000e+00
Cu 1.409171814374518439e+00 3.165323114776847496e-02 0.000000000000000000e+00
Cu 1.408833041013365373e+00 1.300312740369376219e-01 0.000000000000000000e+00
Cu 1.408705817534887661e+00 2.283302412055535635e-01 0.000000000000000000e+00
Cu 1.408773351537512042e+00 3.264910461278995868e-01 0.000000000000000000e+00
Cu 1.409034446520478934e+00 4.245125263192866538e-01 0.000000000000000000e+00
Cu 1.409464430860103645e+00 5.224874832993542384e-01 0.000000000000000000e+00
Cu 1.410011361845831868e+00 6.205566051172137776e-01 0.000000000000000000e+00
Cu 1.410669210251456196e+00 7.188033132233869749e-01 0.000000000000000000e+00
Cu 1.411477872076472906e+00 8.172348576936900866e-01 0.000000000000000000e+00
Cu 1.412448155537316064e+00 9.158117366227230827e-01 0.000000000000000000e+00
Cu 1.528155786100749980e+00 3.238969567252697468e-02 0.000000000000000000e+00
Cu 1.527918051941930644e+00 1.306176398325388510e-01 0.000000000000000000e+00
Cu 1.527954618172030266e+00 2.287097140142002605e-01 0.000000000000000000e+00
Cu 1.528182832114687084e+00 3.266105901870797190e-01 0.000000000000000000e+00
Cu 1.528515744644631580e+00 4.243579103392334795e-01 0.000000000000000000e+00
Cu 1.528878416373558480e+00 5.220661048608187249e-01 0.000000000000000000e+00
Cu 1.529249556872941174e+00 6.198689567525301758e-01 0.000000000000000000e+00
Cu 1.529676458536675332e+00 7.178628394916977129e-01 0.000000000000000000e+00
Cu 1.530239563043525930e+00 8.160806776183556766e-01 0.000000000000000000e+00
Cu 1.531015466115434709e+00 9.144734991102928534e-01 0.000000000000000000e+00
Cu 1.647347269339367148e+00 3.309796480029625343e-02 0.000000000000000000e+00
Cu 1.647305085745990549e+00 1.312134940633296332e-01 0.000000000000000000e+00
Cu 1.647606981402321091e+00 2.291205454507731776e-01 0.000000000000000000e+00
Cu 1.648074335048554273e+00 3.267801252083044616e-01 0.000000000000000000e+00
Cu 1.648527941491019444e+00 4.242599265056996583e-01 0.000000000000000000e+00
Cu 1.648842203945147133e+00 5.216899878016892922e-01 0.000000000000000000e+00
Cu 1.649005707608161675e+00 6.192150032242305091e-01 0.000000000000000000e+00
Cu 1.649122729324123515e+00 7.169571643902880043e-01 0.000000000000000000e+00
Cu 1.649356645293614143e+00 8.149763567543338860e-01 0.000000000000000000e+00
Cu 1.649877427863477797e+00 9.132284985992845661e-01 0.000000000000000000e+00
Cu 1.766638891086510954e+00 3.366003848367635221e-02 0.000000000000000000e+00
Cu 1.766958414609649086e+00 1.317074528591191396e-01 0.000000000000000000e+00
Cu 1.767689068108701633e+00 2.294381889897583460e-01 0.000000000000000000e+00
Cu 1.768515284271974242e+00 3.268719144701571766e-01 0.000000000000000000e+00
Cu 1.769152580058465540e+00 4.241465473663524333e-01 0.000000000000000000e+00
Cu 1.769432428405263380e+00 5.213915767598770179e-01 0.000000000000000000e+00
Cu 1.769345638448491798e+00 6.187011024197737186e-01 0.000000000000000000e+00
Cu 1.769043368645269565e+00 7.162009736864420884e-01 0.000000000000000000e+00
Cu 1.768796068460172677e+00 8.140228985729490718e-01 0.000000000000000000e+00
Cu 1.768909842956140732e+00 9.121794958361039152e-01 0.000000000000000000e+00
Cu 1.885873128385777697e+00 3.385992880386397286e-02 0.000000000000000000e+00
Cu 1.886859351785832750e+00 1.318831856053130358e-01 0.000000000000000000e+00
Cu 1.888273955953347238e+00 2.294140027884115918e-01 0.000000000000000000e+00
Cu 1.889565552227388423e+00 3.266689308605548181e-01 0.000000000000000000e+00
Cu 1.890380734093028980e+00 4.239262282747922606e-01 0.000000000000000000e+00
Cu 1.890636987778976819e+00 5.212378037586692381e-01 0.000000000000000000e+00
Cu 1.890325367157472458e+00 6.185215707246137784e-01 0.000000000000000000e+00
Cu 1.889511999805522313e+00 7.158270323552871073e-01 0.000000000000000000e+00
Cu 1.888538374775632356e+00 8.134279171707389233e-01 0.000000000000000000e+00
Cu 1.887948163254185019e+00 9.115348961540550299e-01 0.000000000000000000e+00
Cu 2.004780695486467756e+00 3.329065215272990208e-02 0.000000000000000000e+00
Cu 2.007069161417402547e+00 1.313229579004568381e-01 0.000000000000000000e+00
Cu 2.009517621265515697e+00 2.286098663601967562e-01 0.000000000000000000e+00
Cu 2.011201979884056801e+00 3.259229223675465525e-01 0.000000000000000000e+00
Cu 2.012062636868208632e+00 4.235397861656883811e-01 0.000000000000000000e+00
Cu 2.012304196551899516e+00 5.212671501143623098e-01 0.000000000000000000e+00
Cu 2.011917669060452329e+00 6.189052929319804885e-01 0.000000000000000000e+00
Cu 2.010681394151574430e+00 7.162584937388338790e-01 0.000000000000000000e+00
Cu 2.008641961898063322e+00 8.135996056449003033e-01 0.000000000000000000e+00
Cu 2.006718891603306076e+00 9.116948523435132179e-01 0.000000000000000000e+00
Cu 2.122788105616413290e+00 3.099502873272274098e-02 0.000000000000000000e+00
Cu 2.127950865992222163e+00 1.290390306171415868e-01 0.000000000000000000e+00
Cu 2.131483390410835899e+00 2.264929566820656492e-01 0.000000000000000000e+00
Cu 2.133146987800277117e+00 3.246427178487230059e-01 0.000000000000000000e+00
Cu 2.133983601202731339e+00 4.230105557384100101e-01 0.000000000000000000e+00
Cu 2.134216871064867238e+00 5.214363006037681103e-01 0.000000000000000000e+00
Cu 2.133838609131475383e+00 6.198256268346690190e-01 0.000000000000000000e+00
Cu 2.132608379451381708e+00 7.180139377554238811e-01 0.000000000000000000e+00
Cu 2.129467568915350384e+00 8.155178446228319444e-01 0.000000000000000000e+00
Cu 2.124646709836613745e+00 9.136129360793203702e-01 0.000000000000000000e+00
Cu 2.238360410982499271e+00 2.261981580135928940e-02 0.000000000000000000e+00
Cu 2.249918662392804247e+00 1.233975626736399378e-01 0.000000000000000000e+00
Cu 2.253374971374516367e+00 2.236055384830917814e-01 0.000000000000000000e+00
Cu 2.255168859119748959e+00 3.231896172253020949e-01 0.000000000000000000e+00
Cu 2.256013405418529683e+00 4.224449162983685557e-01 0.000000000000000000e+00
Cu 2.256241700320857468e+00 5.216190050164776215e-01 0.000000000000000000e+00
Cu 2.255846974284641870e+00 6.209021680717003999e-01 0.000000000000000000e+00
Cu 2.254482806676758155e+00 7.205370069090051288e-01 0.000000000000000000e+00
Cu 2.251421568643917404e+00 8.208071252718094346e-01 0.000000000000000000e+00
Cu 2.240208995817025706e+00 9.216536662685100856e-01 0.000000000000000000e+00
