200

Cu 0.000000000000000000e+00 2.508075640416638791e-03 0.000000000000000000e+00
Cu 0.000000000000000000e+00 1.072409518629735686e-01 0.000000000000000000e+00
Cu 0.000000000000000000e+00 2.119146085460042739e-01 0.000000000000000000e+00
Cu 0.000000000000000000e+00 3.165715281457704977e-01 0.000000000000000000e+00
Cu 0.000000000000000000e+00 4.212301939082482849e-01 0.000000000000000000e+00
Cu 0.000000000000000000e+00 5.258950851206544153e-01 0.000000000000000000e+00
Cu 0.000000000000000000e+00 6.305675935276692234e-01 0.000000000000000000e+00
Cu 0.000000000000000000e+00 7.352507260043281700e-01 0.000000000000000000e+00
Cu 0.000000000000000000e+00 8.399594952044252549e-01 0.000000000000000000e+00
Cu 0.000000000000000000e+00 9.447304263211037112e-01 0.000000000000000000e+00
Cu 1.069726767970444747e-01 2.907913387564672447e-03 0.000000000000000000e+00
Cu 1.068146919661334265e-01 1.073818741183998893e-01 0.000000000000000000e+00
Cu 1.067801504887939540e-01 2.119770349817408084e-01 0.000000000000000000e+00
Cu 1.067575290333646759e-01 3.166024875307201225e-01 0.000000000000000000e+00
Cu 1.067390759069233863e-01 4.212405880405032943e-01 0.000000000000000000e+00
Cu 1.067243513831258178e-01 5.258880417576360378e-01 0.000000000000000000e+00
Cu 1.067139637073729747e-01 6.305414216347393630e-01 0.000000000000000000e+00
Cu 1.067095882553477371e-01 7.351955452953679027e-01 0.000000000000000000e+00
Cu 1.067195693275516943e-01 8.398315010042258777e-01 0.000000000000000000e+00
Cu 1.068486543720211374e-01 9.443623613961946717e-01 0.000000000000000000e+00
Cu 2.139100336153701432e-01 3.134657110598927481e-03 0.000000000000000000e+00
Cu 2.137356228026188187e-01 1.075962903587936448e-01 0.000000000000000000e+00
Cu 2.136242179410551834e-01 2.121089465573750554e-01 0.000000000000000000e+00
Cu 2.135630611247339161e-01 3.166781908294754033e-01 0.000000000000000000e+00
Cu 2.135193097330027878e-01 4.212740777639340517e-01 0.000000000000000000e+00
Cu 2.134880457473593285e-01 5.258837784602778953e-01 0.000000000000000000e+00
Cu 2.134720481158093042e-01 6.304975492712602270e-01 0.000000000000000000e+00
Cu 2.134785131331704555e-01 7.350981509521097301e-01 0.000000000000000000e+00
Cu 2.135371964934448530e-01 8.396552249187672068e-01 0.000000000000000000e+00
Cu 2.136596845482370277e-01 9.441751834525672349e-01 0.000000000000000000e+00
Cu 3.208713198782111586e-01 3.362182983048331124e-03 0.000000000000000000e+00
Cu 3.206837957647786230e-01 1.078002142839809829e-01 0.000000000000000000e+00
Cu 3.205418252006033697e-01 2.122785804982817437e-01 0.000000000000000000e+00
Cu 3.204430497904193764e-01 3.167934932437386220e-01 0.000000000000000000e+00
Cu 3.203722961118671830e-01 4.213328583897536506e-01 0.000000000000000000e+00
Cu 3.203208503469635038e-01 5.258849818330797454e-01 0.000000000000000000e+00
Cu 3.202985644481826100e-01 6.304426837547174589e-01 0.000000000000000000e+00
Cu 3.203177338037215272e-01 7.349890643755084829e-01 0.000000000000000000e+00
Cu 3.203804545260775516e-01 8.395109538881437850e-01 0.000000000000000000e+00
Cu 3.204863945743615106e-01 9.440098953643490942e-01 0.000000000000000000e+00
Cu 4.278908522080092647e-01 3.609658045077966497e-03 0.000000000000000000e+00
Cu 4.276838332962234479e-01 1.080145959771129788e-01 0.000000000000000000e+00
Cu 4.275235257137012246e-01 2.124593669431886489e-01 0.000000000000000000e+00
Cu 4.274072775850404349e-01 3.169341392474364083e-01 0.000000000000000000e+00
Cu 4.273243589993360181e-01 4.214222033317724936e-01 0.000000000000000000e+00
Cu 4.272536046114283614e-01 5.259018314769147162e-01 0.000000000000000000e+00
Cu 4.272076020999268087e-01 6.303868102228774584e-01 0.000000000000000000e+00
Cu 4.272174671792258183e-01 7.348877936766282648e-01 0.000000000000000000e+00
Cu 4.272728114779271169e-01 8.393856046650746139e-01 0.000000000000000000e+00
Cu 4.273564247373997094e-01 9.438592816451432110e-01 0.000000000000000000e+00
Cu 5.349948669991237971e-01 3.887496033787995239e-03 0.000000000000000000e+00
Cu 5.347624913498628674e-01 1.082462711327910887e-01 0.000000000000000000e+00
Cu 5.345836589147596740e-01 2.126490108388294498e-01 0.000000000000000000e+00
Cu 5.344580583144330488e-01 3.170844254871590384e-01 0.000000000000000000e+00
Cu 5.343790463987797557e-01 4.215345840765993835e-01 0.000000000000000000e+00
Cu 5.343266776834247889e-01 5.259686617659379282e-01 0.000000000000000000e+00
Cu 5.342336576404945747e-01 6.303406133893117991e-01 0.000000000000000000e+00
Cu 5.341735076103093505e-01 7.347736536319137146e-01 0.000000000000000000e+00
Cu 5.342194635055260710e-01 8.392785392650542464e-01 0.000000000000000000e+00
Cu 5.342942220339966797e-01 9.437524847739643397e-01 0.000000000000000000e+00
Cu 6.422101872416845492e-01 4.201957226284966547e-03 0.000000000000000000e+00
Cu 6.419462122311535568e-01 1.085006800253899423e-01 0.000000000000000000e+00
Cu 6.417437328076940339e-01 2.128479861994955202e-01 0.000000000000000000e+00
Cu 6.416054686337684387e-01 3.172338710278450047e-01 0.000000000000000000e+00
Cu 6.415320293061557155e-01 4.216457328460357923e-01 0.000000000000000000e+00
Cu 6.415108029654255084e-01 5.260623648947119202e-01 0.000000000000000000e+00
Cu 6.415111927163107408e-01 6.304346115084256130e-01 0.000000000000000000e+00
Cu 6.412285918927185246e-01 7.345800741312018545e-01 0.000000000000000000e+00
Cu 6.410825365744663440e-01 8.391606069781843980e-01 0.000000000000000000e+00
Cu 6.413968079063284700e-01 9.437054761767864619e-01 0.000000000000000000e+00
Cu 7.495643301326121444e-01 4.560232482036912990e-03 0.000000000000000000e+00
Cu 7.492623228653775280e-01 1.087844367446053756e-01 0.000000000000000000e+00
Cu 7.490299751591540378e-01 2.130604014058269657e-01 0.000000000000000000e+00
Cu 7.488721056282785504e-01 3.173787239672865579e-01 0.000000000000000000e+00
Cu 7.487921651819433588e-01 4.217314352511832287e-01 0.000000000000000000e+00
Cu 7.487933702544482539e-01 5.261134939396499011e-01 0.000000000000000000e+00
Cu 7.488468745107035307e-01 6.305220208719143349e-01 0.000000000000000000e+00
Cu 7.489931565192540219e-01 7.349417285978242509e-01 0.000000000000000000e+00
Cu 7.473662829052356571e-01 8.386722277542862924e-01 0.000000000000000000e+00
Cu 7.490018829854513394e-01 9.432491421675963661e-01 0.000000000000000000e+00
Cu 8.570845464131332525e-01 4.970723106282540736e-03 0.000000000000000000e+00
Cu 8.567388432731412040e-01 1.091060076280664093e-01 0.000000000000000000e+00
Cu 8.564723695708925666e-01 2.132933988649018398e-01 0.000000000000000000e+00
Cu 8.562905159794993448e-01 3.175217320280371847e-01 0.000000000000000000e+00
Cu 8.561991248777518493e-01 4.217827424601964248e-01 0.000000000000000000e+00
Cu 8.562002720926952248e-01 5.260718990682350382e-01 0.000000000000000000e+00
Cu 8.563223225835540076e-01 6.303868758258722726e-01 0.000000000000000000e+00
Cu 8.565182819783280221e-01 7.347083528539211095e-01 0.000000000000000000e+00
Cu 8.586560592099846678e-01 8.383122377379307322e-01 0.000000000000000000e+00
Cu 8.575995423824420705e-01 9.427841238731134998e-01 0.000000000000000000e+00
Cu 9.647962958099397524e-01 5.442240806276313174e-03 0.000000000000000000e+00
Cu 9.644035842445790596e-01 1.094749475390666138e-01 0.000000000000000000e+00
Cu 9.641028749623178351e-01 2.135558000824973601e-01 0.000000000000000000e+00
Cu 9.638998067328374830e-01 3.176691763432337723e-01 0.000000000000000000e+00
Cu 9.638020346327831334e-01 4.218018018381571310e-01 0.000000000000000000e+00
Cu 9.638272762436960184e-01 5.259351999960151236e-01 0.000000000000000000e+00
Cu 9.640054526603901719e-01 6.300233893069475677e-01 0.000000000000000000e+00
Cu 9.646371728793460276e-01 7.338849457946561294e-01 0.000000000000000000e+00
Cu 9.652805248546886263e-01 8.381941845576306171e-01 0.000000000000000000e+00
Cu 9.655962046119435094e-01 9.424691015177277809e-01 0.000000000000000000e+00
Cu 1.072721276938007895e+00 5.982637640914336211e-03 0.000000000000000000e+00
Cu 1.072282639031202800e+00 1.099008937899141891e-01 0.000000000000000000e+00
Cu 1.071953843150758923e+00 2.138575484100923019e-01 0.000000000000000000e+00
Cu 1.071739036135849421e+00 3.178307458985618061e-01 0.000000000000000000e+00
Cu 1.071649600283171466e+00 4.218021520364747534e-01 0.000000000000000000e+00
Cu 1.071708093418046959e+00 5.257491983677301528e-01 0.000000000000000000e+00
Cu 1.071981105254766753e+00 6.296380305228768126e-01 0.000000000000000000e+00
Cu 1.072387856883898483e+00 7.336033989735574190e-01 0.000000000000000000e+00
Cu 1.072846386371074656e+00 8.376573704636295359e-01 0.000000000000000000e+00
Cu 1.073432265543415198e+00 9.416804193883397955e-01 0.000000000000000000e+00
Cu 1.180874831674396663e+00 6.596740804230337950e-03 0.000000000000000000e+00
Cu 1.180398372691602082e+00 1.103920192381032395e-01 0.000000000000000000e+00
Cu 1.180055494941399941e+00 2.142093693083587380e-01 0.000000000000000000e+00
Cu 1.179844102122388438e+00 3.180211944105790223e-01 0.000000000000000000e+00
Cu 1.179770117912236849e+00 4.218120203338128205e-01 0.000000000000000000e+00
Cu 1.179849637786364092e+00 5.255790072253525569e-01 0.000000000000000000e+00
Cu 1.180068168395137729e+00 6.293632957913268822e-01 0.000000000000000000e+00
Cu 1.180396601226828768e+00 7.331953247171133503e-01 0.000000000000000000e+00
Cu 1.180848925785805248e+00 8.370560301884238941e-01 0.000000000000000000e+00
Cu 1.181447277106837168e+00 9.409055362341626205e-01 0.000000000000000000e+00
Cu 1.289263077329907414e+00 7.282944500873727439e-03 0.000000000000000000e+00
Cu 1.288767172853182874e+00 1.109517023359338217e-01 0.000000000000000000e+00
Cu 1.288434329318218996e+00 2.146196117414397586e-01 0.000000000000000000e+00
Cu 1.288246323197534515e+00 3.182558960977329154e-01 0.000000000000000000e+00
Cu 1.288190793099083242e+00 4.218556792965718616e-01 0.000000000000000000e+00
Cu 1.288254481681071262e+00 5.254442996433086321e-01 0.000000000000000000e+00
Cu 1.288426068788575796e+00 6.290584561794692053e-01 0.000000000000000000e+00
Cu 1.288712554557739809e+00 7.327175091705954157e-01 0.000000000000000000e+00
Cu 1.289137665976258562e+00 8.364149711847033153e-01 0.000000000000000000e+00
Cu 1.289721636953442552e+00 9.401257180601600982e-01 0.000000000000000000e+00
Cu 1.397880649275239140e+00 8.027963719080813063e-03 0.000000000000000000e+00
Cu 1.397398356325565860e+00 1.115722656512706662e-01 0.000000000000000000e+00
Cu 1.397113535534502349e+00 2.150857414178679039e-01 0.000000000000000000e+00
Cu 1.396980194411683973e+00 3.185372647308543637e-01 0.000000000000000000e+00
Cu 1.396953908981940495e+00 4.219338186192517770e-01 0.000000000000000000e+00
Cu 1.397002388720915977e+00 5.253132696425114601e-01 0.000000000000000000e+00
Cu 1.397121809145967619e+00 6.287228265568512997e-01 0.000000000000000000e+00
Cu 1.397339949181672702e+00 7.321952196869614404e-01 0.000000000000000000e+00
Cu 1.397700855949210785e+00 8.357354639578939981e-01 0.000000000000000000e+00
Cu 1.398249934542653561e+00 9.393145150655550779e-01 0.000000000000000000e+00
Cu 1.506709727553146694e+00 8.799865613543966097e-03 0.000000000000000000e+00
Cu 1.506295625881790556e+00 1.122261224496099580e-01 0.000000000000000000e+00
Cu 1.506117010506551335e+00 2.155814651416054217e-01 0.000000000000000000e+00
Cu 1.506087527536580373e+00 3.188411490495431933e-01 0.000000000000000000e+00
Cu 1.506121166902132602e+00 4.220262612608632335e-01 0.000000000000000000e+00
Cu 1.506159487286271137e+00 5.251868589887792593e-01 0.000000000000000000e+00
Cu 1.506200927936316880e+00 6.283814555501330279e-01 0.000000000000000000e+00
Cu 1.506300697694534119e+00 7.316583162101532034e-01 0.000000000000000000e+00
Cu 1.506541958378441626e+00 8.350368210392032919e-01 0.000000000000000000e+00
Cu 1.507009424857906010e+00 9.384914371481554163e-01 0.000000000000000000e+00
Cu 1.615719055447130792e+00 9.539095879584669896e-03 0.000000000000000000e+00
Cu 1.615462529123584234e+00 1.128551206252582373e-01 0.000000000000000000e+00
Cu 1.615476653243661298e+00 2.160424745704052352e-01 0.000000000000000000e+00
Cu 1.615614216616289234e+00 3.191066972178283057e-01 0.000000000000000000e+00
Cu 1.615739019222184769e+00 4.221037417767237176e-01 0.000000000000000000e+00
Cu 1.615770396180734148e+00 5.250858116555815469e-01 0.000000000000000000e+00
Cu 1.615707180118048925e+00 6.280898414123795570e-01 0.000000000000000000e+00
Cu 1.615627555327546538e+00 7.311673728423196961e-01 0.000000000000000000e+00
Cu 1.615665268276669675e+00 8.343731214974720034e-01 0.000000000000000000e+00
Cu 1.615965700334033306e+00 9.377111493323877500e-01 0.000000000000000000e+00
Cu 1.724858455516971922e+00 1.014294198415339153e-02 0.000000000000000000e+00
Cu 1.724915185864460243e+00 1.133530506289018858e-01 0.000000000000000000e+00
Cu 1.725246040957338467e+00 2.163484881822355932e-01 0.000000000000000000e+00
Cu 1.725597837133473256e+00 3.192320442077829501e-01 0.000000000000000000e+00
Cu 1.725807042336601649e+00 4.221258805395874947e-01 0.000000000000000000e+00
Cu 1.725833592908087466e+00 5.250452083884835641e-01 0.000000000000000000e+00
Cu 1.725676406055620449e+00 6.279442698573735049e-01 0.000000000000000000e+00
Cu 1.725373427208608978e+00 7.308378234278947172e-01 0.000000000000000000e+00
Cu 1.725086309238653026e+00 8.338470598726888117e-01 0.000000000000000000e+00
Cu 1.725066721047414431e+00 9.370733054405008255e-01 0.000000000000000000e+00
Cu 1.834038807987130593e+00 1.041904255164582786e-02 0.000000000000000000e+00
Cu 1.834716215615445511e+00 1.135195515558136276e-01 0.000000000000000000e+00
Cu 1.835511976131662726e+00 2.162968855213243669e-01 0.000000000000000000e+00
Cu 1.836028516527152821e+00 3.191086112362975791e-01 0.000000000000000000e+00
Cu 1.836252918969994097e+00 4.220689576237397489e-01 0.000000000000000000e+00
Cu 1.836276255256942047e+00 5.250843027713018030e-01 0.000000000000000000e+00
Cu 1.836097527589777734e+00 6.280487009517591313e-01 0.000000000000000000e+00
Cu 1.835623744232320886e+00 7.308680227066284285e-01 0.000000000000000000e+00
Cu 1.834866210426937094e+00 8.336555024222932486e-01 0.000000000000000000e+00
Cu 1.834221546450518270e+00 9.367672810120263316e-01 0.000000000000000000e+00
Cu 1.943087400314158941e+00 9.928381779906082436e-03 0.000000000000000000e+00
Cu 1.945063364237639369e+00 1.128996388647829641e-01 0.000000000000000000e+00
Cu 1.946286273106603959e+00 2.156695982072219520e-01 0.000000000000000000e+00
Cu 1.946777149157650877e+00 3.187505775588279078e-01 0.000000000000000000e+00
Cu 1.946971260680306681e+00 4.219506267842559888e-01 0.000000000000000000e+00
Cu 1.946992580998643918e+00 5.251813665166513712e-01 0.000000000000000000e+00
Cu 1.946840261236832736e+00 6.283849805795814758e-01 0.000000000000000000e+00
Cu 1.946388650007455201e+00 7.314724054244061691e-01 0.000000000000000000e+00
Cu 1.945200956030495920e+00 8.342504187201943422e-01 0.000000000000000000e+00
Cu 1.943255352477404996e+00 9.372294873267662529e-01 0.000000000000000000e+00
Cu 2.051664533137117274e+00 6.798204679343410918e-03 0.000000000000000000e+00
Cu 2.056009984468421870e+00 1.108594185111577562e-01 0.000000000000000000e+00
Cu 2.057212179588303602e+00 2.147005403188887995e-01 0.000000000000000000e+00
Cu 2.057715972425639528e+00 3.183212296271568653e-01 0.000000000000000000e+00
Cu 2.057905947953847736e+00 4.218194802087583128e-01 0.000000000000000000e+00
Cu 2.057925996802784763e+00 5.252840505635264501e-01 0.000000000000000000e+00
Cu 2.057775469864577378e+00 6.287861912467203052e-01 0.000000000000000000e+00
Cu 2.057309224727779551e+00 7.324138319009186882e-01 0.000000000000000000e+00
Cu 2.056141509337713114e+00 8.362632453425280499e-01 0.000000000000000000e+00
Cu 2.051826615874613680e+00 9.403317271847829728e-01 0.000000000000000000e+00
