200

Cu 0.000000000000000000e+00 1.188499059801708356e-02 0.000000000000000000e+00
Cu 0.000000000000000000e+00 1.147851836610296467e-01 0.000000000000000000e+00
Cu 0.000000000000000000e+00 2.173510134975268626e-01 0.000000000000000000e+00
Cu 0.000000000000000000e+00 3.197773030885770473e-01 0.000000000000000000e+00
Cu 0.000000000000000000e+00 4.221661414225563735e-01 0.000000000000000000e+00
Cu 0.000000000000000000e+00 5.245628905352790472e-01 0.000000000000000000e+00
Cu 0.000000000000000000e+00 6.270010076300892576e-01 0.000000000000000000e+00
Cu 0.000000000000000000e+00 7.295205678744843825e-01 0.000000000000000000e+00
Cu 0.000000000000000000e+00 8.322116656464237927e-01 0.000000000000000000e+00
Cu 0.000000000000000000e+00 9.352496212757371863e-01 0.000000000000000000e+00
Cu 1.123688369508486495e-01 1.343973934850900206e-02 0.000000000000000000e+00
Cu 1.118395491990124974e-01 1.153199004590952648e-01 0.000000000000000000e+00
Cu 1.117711433001433996e-01 2.175791508562894827e-01 0.000000000000000000e+00
Cu 1.117269491561764944e-01 3.198903076776434262e-01 0.000000000000000000e+00
Cu 1.116802067412154265e-01 4.222083945165550078e-01 0.000000000000000000e+00
Cu 1.116279350233299883e-01 5.245464599648785864e-01 0.000000000000000000e+00
Cu 1.115724504415843144e-01 6.269181317173961876e-01 0.000000000000000000e+00
Cu 1.115209153194785391e-01 7.293300959740872669e-01 0.000000000000000000e+00
Cu 1.115017754712593068e-01 8.317332234666972024e-01 0.000000000000000000e+00
Cu 1.119283107010547174e-01 9.338134967856710489e-01 0.000000000000000000e+00
Cu 2.245431528749403938e-01 1.421360731540409136e-02 0.000000000000000000e+00
Cu 2.240364596346280934e-01 1.160630834086115309e-01 0.000000000000000000e+00
Cu 2.237341126298722782e-01 2.180290727367628911e-01 0.000000000000000000e+00
Cu 2.235878614043201040e-01 3.201502208633295044e-01 0.000000000000000000e+00
Cu 2.234700625825536136e-01 4.223334251557711028e-01 0.000000000000000000e+00
Cu 2.233605261372042239e-01 5.245526720470486959e-01 0.000000000000000000e+00
Cu 2.232686233975232359e-01 6.267960604083985254e-01 0.000000000000000000e+00
Cu 2.232225122595007938e-01 7.290244221351763754e-01 0.000000000000000000e+00
Cu 2.233393637603530157e-01 8.311443689794483225e-01 0.000000000000000000e+00
Cu 2.236621031554080763e-01 9.331978208416723541e-01 0.000000000000000000e+00
Cu 3.367011099858715495e-01 1.485949772874886783e-02 0.000000000000000000e+00
Cu 3.362332193426724736e-01 1.166816298284171494e-01 0.000000000000000000e+00
Cu 3.358781373747240506e-01 2.185653507321836109e-01 0.000000000000000000e+00
Cu 3.356326304338274613e-01 3.205267908629560458e-01 0.000000000000000000e+00
Cu 3.354402054569979863e-01 4.225440183668868754e-01 0.000000000000000000e+00
Cu 3.352637571457917076e-01 5.245921852079142855e-01 0.000000000000000000e+00
Cu 3.351347911666639479e-01 6.266664823404107798e-01 0.000000000000000000e+00
Cu 3.351011056795656362e-01 7.287299749680623551e-01 0.000000000000000000e+00
Cu 3.351787184793472152e-01 8.307614531418260340e-01 0.000000000000000000e+00
Cu 3.353637335941627162e-01 9.327916037234669222e-01 0.000000000000000000e+00
Cu 4.489155206402930531e-01 1.545990293143420860e-02 0.000000000000000000e+00
Cu 4.484702615599101549e-01 1.172450758994163095e-01 0.000000000000000000e+00
Cu 4.481166262874433093e-01 2.190795702432547509e-01 0.000000000000000000e+00
Cu 4.478498794056685606e-01 3.209578143536213068e-01 0.000000000000000000e+00
Cu 4.476362383439545511e-01 4.228497691340618037e-01 0.000000000000000000e+00
Cu 4.473998643151421706e-01 5.247008328406151945e-01 0.000000000000000000e+00
Cu 4.471769893242138472e-01 6.265718643820713529e-01 0.000000000000000000e+00
Cu 4.470731555630897414e-01 7.285275592501796460e-01 0.000000000000000000e+00
Cu 4.470594872701118550e-01 8.305320382282200820e-01 0.000000000000000000e+00
Cu 4.470857843048259839e-01 9.325467091480579285e-01 0.000000000000000000e+00
Cu 5.612291481444303676e-01 1.604611543085932013e-02 0.000000000000000000e+00
Cu 5.607950734677026317e-01 1.177740160065268993e-01 0.000000000000000000e+00
Cu 5.604524006301511152e-01 2.195558093924382115e-01 0.000000000000000000e+00
Cu 5.602023270467986205e-01 3.213808246099673083e-01 0.000000000000000000e+00
Cu 5.600232011492604078e-01 4.232163540413640401e-01 0.000000000000000000e+00
Cu 5.598565154481824901e-01 5.249882878008756970e-01 0.000000000000000000e+00
Cu 5.594625976425131597e-01 6.265565705872900848e-01 0.000000000000000000e+00
Cu 5.590862322653215033e-01 7.283484896030499867e-01 0.000000000000000000e+00
Cu 5.589692943864078556e-01 8.304524592034118191e-01 0.000000000000000000e+00
Cu 5.588593877222087780e-01 9.325497879153104019e-01 0.000000000000000000e+00
Cu 6.736848073587001773e-01 1.663033887622130877e-02 0.000000000000000000e+00
Cu 6.732510062863059641e-01 1.182781462754628893e-01 0.000000000000000000e+00
Cu 6.729122185761288177e-01 2.199874566859240654e-01 0.000000000000000000e+00
Cu 6.726771083743150470e-01 3.217527770749942784e-01 0.000000000000000000e+00
Cu 6.725477900351953808e-01 4.235601212009925676e-01 0.000000000000000000e+00
Cu 6.724774532367778779e-01 5.253664807434966777e-01 0.000000000000000000e+00
Cu 6.724024095010368018e-01 6.270477554336245651e-01 0.000000000000000000e+00
Cu 6.712226939625478561e-01 7.279811751915700180e-01 0.000000000000000000e+00
Cu 6.704365454503871113e-01 8.304185360437067454e-01 0.000000000000000000e+00
Cu 6.709398008810514291e-01 9.328910131414643869e-01 0.000000000000000000e+00
Cu 7.863268872919375596e-01 1.722422793195390461e-02 0.000000000000000000e+00
Cu 7.858824918492615108e-01 1.187676519326505281e-01 0.000000000000000000e+00
Cu 7.855356078442892187e-01 2.203769420286294800e-01 0.000000000000000000e+00
Cu 7.853009399207503405e-01 3.220510204497143425e-01 0.000000000000000000e+00
Cu 7.851862571365321175e-01 4.237924386327318604e-01 0.000000000000000000e+00
Cu 7.852062225821105912e-01 5.256126441920355719e-01 0.000000000000000000e+00
Cu 7.852356601892463983e-01 6.275275951389027718e-01 0.000000000000000000e+00
Cu 7.856025319322090805e-01 7.295458815508849559e-01 0.000000000000000000e+00
Cu 7.795272501164883794e-01 8.292714096314839356e-01 0.000000000000000000e+00
Cu 7.845332243660341209e-01 9.319496294714593176e-01 0.000000000000000000e+00
Cu 8.991992376243955754e-01 1.784155148553721523e-02 0.000000000000000000e+00
Cu 8.987350168496585079e-01 1.192566605358946624e-01 0.000000000000000000e+00
Cu 8.983725472074548524e-01 2.207351593163270620e-01 0.000000000000000000e+00
Cu 8.981277275285176609e-01 3.222732103229611900e-01 0.000000000000000000e+00
Cu 8.980183351546227044e-01 4.238735464953971022e-01 0.000000000000000000e+00
Cu 8.980429323073625403e-01 5.255495006444327322e-01 0.000000000000000000e+00
Cu 8.983235613429025879e-01 6.273199493828540696e-01 0.000000000000000000e+00
Cu 8.985065859165336510e-01 7.291922954709727511e-01 0.000000000000000000e+00
Cu 9.053363132489677945e-01 8.287079357201215801e-01 0.000000000000000000e+00
Cu 9.012357264824716330e-01 9.312781690748941354e-01 0.000000000000000000e+00
Cu 1.012341565263628063e+00 1.849702762406314066e-02 0.000000000000000000e+00
Cu 1.011852820390636731e+00 1.197620619829850158e-01 0.000000000000000000e+00
Cu 1.011476199604327331e+00 2.210783955477352847e-01 0.000000000000000000e+00
Cu 1.011230629590672114e+00 3.224310638481234226e-01 0.000000000000000000e+00
Cu 1.011137676620274428e+00 4.238065573821197529e-01 0.000000000000000000e+00
Cu 1.011257047217171356e+00 5.251705461835439737e-01 0.000000000000000000e+00
Cu 1.011645066456509312e+00 6.264099804943494831e-01 0.000000000000000000e+00
Cu 1.013382465476228678e+00 7.269043591397025272e-01 0.000000000000000000e+00
Cu 1.014935697300001660e+00 8.289174235324667794e-01 0.000000000000000000e+00
Cu 1.015393909950805806e+00 9.309807657405054782e-01 0.000000000000000000e+00
Cu 1.125785155568206131e+00 1.920426404557399463e-02 0.000000000000000000e+00
Cu 1.125274452948576975e+00 1.203021517736923562e-01 0.000000000000000000e+00
Cu 1.124897547180454982e+00 2.214278819291138067e-01 0.000000000000000000e+00
Cu 1.124673455405596600e+00 3.225505703006533165e-01 0.000000000000000000e+00
Cu 1.124640320214219447e+00 4.236384640215545838e-01 0.000000000000000000e+00
Cu 1.124862336753091219e+00 5.246400142702156710e-01 0.000000000000000000e+00
Cu 1.125574974220406865e+00 6.254466851570736896e-01 0.000000000000000000e+00
Cu 1.126517977672883752e+00 7.265083560081880831e-01 0.000000000000000000e+00
Cu 1.127428670028780555e+00 8.279200002894567811e-01 0.000000000000000000e+00
Cu 1.128531310297046231e+00 9.293374838323558151e-01 0.000000000000000000e+00
Cu 1.239547327361185669e+00 1.997304973556030330e-02 0.000000000000000000e+00
Cu 1.239027878043012398e+00 1.208949702140244137e-01 0.000000000000000000e+00
Cu 1.238676356936036838e+00 2.218106355369284521e-01 0.000000000000000000e+00
Cu 1.238504066241092660e+00 3.226757049776956543e-01 0.000000000000000000e+00
Cu 1.238539053615764551e+00 4.234633651570480772e-01 0.000000000000000000e+00
Cu 1.238842799877529766e+00 5.241668626139470710e-01 0.000000000000000000e+00
Cu 1.239374880987207828e+00 6.249155107511213947e-01 0.000000000000000000e+00
Cu 1.240036538775551866e+00 7.258242202203539772e-01 0.000000000000000000e+00
Cu 1.240853777779391987e+00 8.268604067908418287e-01 0.000000000000000000e+00
Cu 1.241862322933444007e+00 9.279465997759424045e-01 0.000000000000000000e+00
Cu 1.353625570640034859e+00 2.080410447410465519e-02 0.000000000000000000e+00
Cu 1.353125464416519597e+00 1.215529770755648525e-01 0.000000000000000000e+00
Cu 1.352838579981978651e+00 2.222531938510150240e-01 0.000000000000000000e+00
Cu 1.352746725891736057e+00 3.228557226314242579e-01 0.000000000000000000e+00
Cu 1.352842399431141152e+00 4.233591626856792467e-01 0.000000000000000000e+00
Cu 1.353103486627759811e+00 5.238314657504886673e-01 0.000000000000000000e+00
Cu 1.353494733056999744e+00 6.243712356652537654e-01 0.000000000000000000e+00
Cu 1.354018439806557561e+00 7.250341748578503775e-01 0.000000000000000000e+00
Cu 1.354713076262355376e+00 8.258197230393025112e-01 0.000000000000000000e+00
Cu 1.355597753168426012e+00 9.266943566710996727e-01 0.000000000000000000e+00
Cu 1.467993162300167187e+00 2.167939741790760738e-02 0.000000000000000000e+00
Cu 1.467562861071010083e+00 1.222708260671013653e-01 0.000000000000000000e+00
Cu 1.467398825147290475e+00 2.227631716876652956e-01 0.000000000000000000e+00
Cu 1.467430255686109852e+00 3.231098739627170646e-01 0.000000000000000000e+00
Cu 1.467583953640474892e+00 4.233378169945014591e-01 0.000000000000000000e+00
Cu 1.467800108855394026e+00 5.235336488355603057e-01 0.000000000000000000e+00
Cu 1.468065549777002543e+00 6.237992873835573882e-01 0.000000000000000000e+00
Cu 1.468423735601143143e+00 7.242072625944883102e-01 0.000000000000000000e+00
Cu 1.468945252699969117e+00 8.247799215637384718e-01 0.000000000000000000e+00
Cu 1.469698216885173769e+00 9.254761730864637936e-01 0.000000000000000000e+00
Cu 1.582597863530733839e+00 2.254805774277210753e-02 0.000000000000000000e+00
Cu 1.582322907004186208e+00 1.230074712317948682e-01 0.000000000000000000e+00
Cu 1.582372577841691941e+00 2.233028756247528446e-01 0.000000000000000000e+00
Cu 1.582600123600665265e+00 3.234008509489745831e-01 0.000000000000000000e+00
Cu 1.582857680637556497e+00 4.233529696263172437e-01 0.000000000000000000e+00
Cu 1.583042631833963210e+00 5.232618936382674724e-01 0.000000000000000000e+00
Cu 1.583148665403990796e+00 6.232432107347942729e-01 0.000000000000000000e+00
Cu 1.583266173699733992e+00 7.233940993826140087e-01 0.000000000000000000e+00
Cu 1.583533411078957842e+00 8.237608292944297306e-01 0.000000000000000000e+00
Cu 1.584091970636164692e+00 9.243070789929156428e-01 0.000000000000000000e+00
Cu 1.697360706604468916e+00 2.330872606335996494e-02 0.000000000000000000e+00
Cu 1.697385879267382158e+00 1.236658616870847105e-01 0.000000000000000000e+00
Cu 1.697790132150413411e+00 2.237643580988666336e-01 0.000000000000000000e+00
Cu 1.698316915071127919e+00 3.236214075959443770e-01 0.000000000000000000e+00
Cu 1.698731483925239427e+00 4.233477409858278362e-01 0.000000000000000000e+00
Cu 1.698894652495016810e+00 5.230472704713295951e-01 0.000000000000000000e+00
Cu 1.698801451422676134e+00 6.227956871273637729e-01 0.000000000000000000e+00
Cu 1.698581326181174411e+00 7.226946316532597558e-01 0.000000000000000000e+00
Cu 1.698460615631480763e+00 8.228508244283280204e-01 0.000000000000000000e+00
Cu 1.698690081641165195e+00 9.232768734842554670e-01 0.000000000000000000e+00
Cu 1.812165099599746032e+00 2.378188308676073073e-02 0.000000000000000000e+00
Cu 1.812749316876744565e+00 1.240635998071816098e-01 0.000000000000000000e+00
Cu 1.813719795685628799e+00 2.239392545921076449e-01 0.000000000000000000e+00
Cu 1.814630558785302439e+00 3.235920737114879597e-01 0.000000000000000000e+00
Cu 1.815194243866755874e+00 4.232483510082784561e-01 0.000000000000000000e+00
Cu 1.815342421241971538e+00 5.229475002415397977e-01 0.000000000000000000e+00
Cu 1.815070271711023420e+00 6.226204501637050415e-01 0.000000000000000000e+00
Cu 1.814437266578706520e+00 7.223051246882716825e-01 0.000000000000000000e+00
Cu 1.813723914716692143e+00 8.222248493088707422e-01 0.000000000000000000e+00
Cu 1.813371480903403388e+00 9.225587391439764584e-01 0.000000000000000000e+00
Cu 1.926813174809927087e+00 2.363249214734527634e-02 0.000000000000000000e+00
Cu 1.928482928884663883e+00 1.238536025062921958e-01 0.000000000000000000e+00
Cu 1.930292851354501460e+00 2.234693300241064329e-01 0.000000000000000000e+00
Cu 1.931515373837233263e+00 3.231149231606995631e-01 0.000000000000000000e+00
Cu 1.932114384450473787e+00 4.230090300027217753e-01 0.000000000000000000e+00
Cu 1.932252989489128270e+00 5.229947066007993861e-01 0.000000000000000000e+00
Cu 1.931926429863294770e+00 6.229020801039618638e-01 0.000000000000000000e+00
Cu 1.930962535262342517e+00 7.225726504030642872e-01 0.000000000000000000e+00
Cu 1.929390417055653950e+00 8.222220159834869868e-01 0.000000000000000000e+00
Cu 1.927934894434099711e+00 9.224815828074688362e-01 0.000000000000000000e+00
Cu 2.040902382424583550e+00 2.208462461720919756e-02 0.000000000000000000e+00
Cu 2.044898810515114462e+00 1.222314414506467523e-01 0.000000000000000000e+00
Cu 2.047538247768789343e+00 2.219437523768093834e-01 0.000000000000000000e+00
Cu 2.048738005945132556e+00 3.222054739541546642e-01 0.000000000000000000e+00
Cu 2.049304949983347335e+00 4.226542460205939267e-01 0.000000000000000000e+00
Cu 2.049437899997112567e+00 5.231515244845019730e-01 0.000000000000000000e+00
Cu 2.049132593413642400e+00 6.236131037185917991e-01 0.000000000000000000e+00
Cu 2.048181542235288255e+00 7.238979198699750928e-01 0.000000000000000000e+00
Cu 2.045769412108844776e+00 8.236398717446172801e-01 0.000000000000000000e+00
Cu 2.041974864798110190e+00 9.238167792671250211e-01 0.000000000000000000e+00
Cu 2.153463252571771402e+00 1.570251310623262120e-02 0.000000000000000000e+00
Cu 2.162209820283623962e+00 1.179686623704555293e-01 0.000000000000000000e+00
Cu 2.164813986960416159e+00 2.197943699957016217e-01 0.000000000000000000e+00
Cu 2.166086515696241666e+00 3.211575058526833226e-01 0.000000000000000000e+00
Cu 2.166656551929743380e+00 4.222706737903488827e-01 0.000000000000000000e+00
Cu 2.166785968570667631e+00 5.233188883300852190e-01 0.000000000000000000e+00
Cu 2.166471336795920077e+00 6.244478403746934747e-01 0.000000000000000000e+00
Cu 2.165444037110224595e+00 7.258395903394763149e-01 0.000000000000000000e+00
Cu 2.163067819738918818e+00 8.277002924470252543e-01 0.000000000000000000e+00
Cu 2.154525179284721315e+00 9.300030998060532239e-01 0.000000000000000000e+00
