200

Cu 0.000000000000000000e+00 1.500521970256157205e-03 0.000000000000000000e+00
Cu 0.000000000000000000e+00 1.064380567855300608e-01 0.000000000000000000e+00
Cu 0.000000000000000000e+00 2.113444784868033777e-01 0.000000000000000000e+00
Cu 0.000000000000000000e+00 3.162449965855986256e-01 0.000000000000000000e+00
Cu 0.000000000000000000e+00 4.211495201408279043e-01 0.000000000000000000e+00
Cu 0.000000000000000000e+00 5.260591027017487153e-01 0.000000000000000000e+00
Cu 0.000000000000000000e+00 6.309728103181804215e-01 0.000000000000000000e+00
Cu 0.000000000000000000e+00 7.358906832033762502e-01 0.000000000000000000e+00
Cu 0.000000000000000000e+00 8.408202531656281398e-01 0.000000000000000000e+00
Cu 0.000000000000000000e+00 9.457826445858374953e-01 0.000000000000000000e+00
Cu 1.063401936672718762e-01 1.757516630411021978e-03 0.000000000000000000e+00
Cu 1.062342779636485796e-01 1.065299230773173456e-01 0.000000000000000000e+00
Cu 1.062081446215055319e-01 2.113857598486057199e-01 0.000000000000000000e+00
Cu 1.061908885878919129e-01 3.162653994636849819e-01 0.000000000000000000e+00
Cu 1.061775227656915344e-01 4.211559445671350654e-01 0.000000000000000000e+00
Cu 1.061678324159887610e-01 5.260535711608712583e-01 0.000000000000000000e+00
Cu 1.061622498245411994e-01 6.309543050470325376e-01 0.000000000000000000e+00
Cu 1.061618841443209144e-01 7.358530147944232214e-01 0.000000000000000000e+00
Cu 1.061722053049087844e-01 8.407358363113577315e-01 0.000000000000000000e+00
Cu 1.062598426189819562e-01 9.455455172679759768e-01 0.000000000000000000e+00
Cu 2.126627359216426982e-01 1.911612774479752282e-03 0.000000000000000000e+00
Cu 2.125404509610954451e-01 1.066735585534649561e-01 0.000000000000000000e+00
Cu 2.124611827545714038e-01 2.114745093415255350e-01 0.000000000000000000e+00
Cu 2.124164299823765589e-01 3.163160608618911240e-01 0.000000000000000000e+00
Cu 2.123852194594888498e-01 4.211774054475815321e-01 0.000000000000000000e+00
Cu 2.123645436811494869e-01 5.260487293757252214e-01 0.000000000000000000e+00
Cu 2.123563358152548985e-01 6.309220820927265994e-01 0.000000000000000000e+00
Cu 2.123652576664623315e-01 7.357845953674920780e-01 0.000000000000000000e+00
Cu 2.124103770558393445e-01 8.406150697338690136e-01 0.000000000000000000e+00
Cu 2.124995783728380050e-01 9.454155932796697304e-01 0.000000000000000000e+00
Cu 3.190100461167250101e-01 2.074843651576107999e-03 0.000000000000000000e+00
Cu 3.188727444327440486e-01 1.068165011971981826e-01 0.000000000000000000e+00
Cu 3.187693183035515410e-01 2.115913058293855953e-01 0.000000000000000000e+00
Cu 3.186975276920289146e-01 3.163943436799101505e-01 0.000000000000000000e+00
Cu 3.186472346402485223e-01 4.212157283910236694e-01 0.000000000000000000e+00
Cu 3.186129717568971231e-01 5.260463891541312664e-01 0.000000000000000000e+00
Cu 3.186015243956851206e-01 6.308802060259827149e-01 0.000000000000000000e+00
Cu 3.186209581607258867e-01 7.357044582738536675e-01 0.000000000000000000e+00
Cu 3.186726084622426569e-01 8.405084763629233624e-01 0.000000000000000000e+00
Cu 3.187570345652316339e-01 9.452910821866286062e-01 0.000000000000000000e+00
Cu 4.254088010170943845e-01 2.260014151802229934e-03 0.000000000000000000e+00
Cu 4.252514555779780547e-01 1.069730598882197015e-01 0.000000000000000000e+00
Cu 4.251308460648473009e-01 2.117199885056641195e-01 0.000000000000000000e+00
Cu 4.250444975873067244e-01 3.164918302461941502e-01 0.000000000000000000e+00
Cu 4.249847770501247179e-01 4.212751330995465060e-01 0.000000000000000000e+00
Cu 4.249373147832590236e-01 5.260534379967265473e-01 0.000000000000000000e+00
Cu 4.249108731248132376e-01 6.308347874240098907e-01 0.000000000000000000e+00
Cu 4.249267145580238325e-01 7.356245685367354126e-01 0.000000000000000000e+00
Cu 4.249780314779942336e-01 8.404077618377417958e-01 0.000000000000000000e+00
Cu 4.250537891185888206e-01 9.451678540898953429e-01 0.000000000000000000e+00
Cu 5.318807086167628428e-01 2.474858667486596730e-03 0.000000000000000000e+00
Cu 5.316983843725185954e-01 1.071484920506001887e-01 0.000000000000000000e+00
Cu 5.315593918970824561e-01 2.118598493372486069e-01 0.000000000000000000e+00
Cu 5.314629208168549779e-01 3.165989180659762869e-01 0.000000000000000000e+00
Cu 5.314040951744637420e-01 4.213512267354696528e-01 0.000000000000000000e+00
Cu 5.313689811047784817e-01 5.260935466721461395e-01 0.000000000000000000e+00
Cu 5.313118392512238275e-01 6.307925584606419722e-01 0.000000000000000000e+00
Cu 5.312831553455557021e-01 7.355308011813468383e-01 0.000000000000000000e+00
Cu 5.313332010516298443e-01 8.403126903120752278e-01 0.000000000000000000e+00
Cu 5.314099131986296243e-01 9.450663269052878013e-01 0.000000000000000000e+00
Cu 6.384481642703991877e-01 2.724769836320320437e-03 0.000000000000000000e+00
Cu 6.382354548998557808e-01 1.073474943763587375e-01 0.000000000000000000e+00
Cu 6.380735300449621450e-01 2.120121119659877928e-01 0.000000000000000000e+00
Cu 6.379637377662430442e-01 3.167092898749604979e-01 0.000000000000000000e+00
Cu 6.379062097184489133e-01 4.214279935151696299e-01 0.000000000000000000e+00
Cu 6.378923274376357977e-01 5.261513776444247670e-01 0.000000000000000000e+00
Cu 6.379003611985022415e-01 6.308432004354252998e-01 0.000000000000000000e+00
Cu 6.377233138330805629e-01 7.353769328756225576e-01 0.000000000000000000e+00
Cu 6.376465423680337530e-01 8.402040565556544438e-01 0.000000000000000000e+00
Cu 6.378959046906343966e-01 9.449969813129805996e-01 0.000000000000000000e+00
Cu 7.451342947829346919e-01 3.016109099174117594e-03 0.000000000000000000e+00
Cu 7.448855198934849486e-01 1.075758871098490832e-01 0.000000000000000000e+00
Cu 7.446953812762819869e-01 2.121806958301402923e-01 0.000000000000000000e+00
Cu 7.445667108365757736e-01 3.168212828191673824e-01 0.000000000000000000e+00
Cu 7.445017000726646961e-01 4.214895277430341647e-01 0.000000000000000000e+00
Cu 7.445024129958082160e-01 5.261794558341889028e-01 0.000000000000000000e+00
Cu 7.445497608459863415e-01 6.308867924248283687e-01 0.000000000000000000e+00
Cu 7.446671326999960705e-01 7.355982516848981190e-01 0.000000000000000000e+00
Cu 7.435857788448331229e-01 8.398327428219105606e-01 0.000000000000000000e+00
Cu 7.447444459240087911e-01 9.446437024458445020e-01 0.000000000000000000e+00
Cu 8.519622445690805401e-01 3.356343225727458773e-03 0.000000000000000000e+00
Cu 8.516722168256543046e-01 1.078410469224362345e-01 0.000000000000000000e+00
Cu 8.514500264812947528e-01 2.123718225063491727e-01 0.000000000000000000e+00
Cu 8.512988854817009621e-01 3.169377867586576913e-01 0.000000000000000000e+00
Cu 8.512225910371742366e-01 4.215303726007923468e-01 0.000000000000000000e+00
Cu 8.512226527504783702e-01 5.261438027242022475e-01 0.000000000000000000e+00
Cu 8.513179872969464101e-01 6.307739407325876346e-01 0.000000000000000000e+00
Cu 8.514814978003126811e-01 7.354035810523229522e-01 0.000000000000000000e+00
Cu 8.529881230576944473e-01 8.395325803955138166e-01 0.000000000000000000e+00
Cu 8.523048199712076611e-01 9.442503895677631931e-01 0.000000000000000000e+00
Cu 9.589540066147901332e-01 3.753415940253941076e-03 0.000000000000000000e+00
Cu 9.586193229134117866e-01 1.081513369358125809e-01 0.000000000000000000e+00
Cu 9.583643994317286863e-01 2.125930606099903364e-01 0.000000000000000000e+00
Cu 9.581923947736301628e-01 3.170641430777680903e-01 0.000000000000000000e+00
Cu 9.581083124403974027e-01 4.215524249541307555e-01 0.000000000000000000e+00
Cu 9.581242012318494927e-01 5.260425768990958373e-01 0.000000000000000000e+00
Cu 9.582617578048359119e-01 6.305001162884577015e-01 0.000000000000000000e+00
Cu 9.587263360831320691e-01 7.347987181831083792e-01 0.000000000000000000e+00
Cu 9.592143734196728611e-01 8.394009647097724347e-01 0.000000000000000000e+00
Cu 9.594869810711061930e-01 9.439675811856494958e-01 0.000000000000000000e+00
Cu 1.066128850682051432e+00 4.214605594461316718e-03 0.000000000000000000e+00
Cu 1.065749662675398390e+00 1.085152624733797255e-01 0.000000000000000000e+00
Cu 1.065466294804039649e+00 2.128528400358092043e-01 0.000000000000000000e+00
Cu 1.065280282544323498e+00 3.172080130718803459e-01 0.000000000000000000e+00
Cu 1.065198806216899552e+00 4.215651514857091664e-01 0.000000000000000000e+00
Cu 1.065237379359637693e+00 5.259065007072009079e-01 0.000000000000000000e+00
Cu 1.065441456942440190e+00 6.302072892235346391e-01 0.000000000000000000e+00
Cu 1.065755223977049138e+00 7.345588120188727421e-01 0.000000000000000000e+00
Cu 1.066122545796422072e+00 8.389655038205299231e-01 0.000000000000000000e+00
Cu 1.066597445763973084e+00 9.433404365334925323e-01 0.000000000000000000e+00
Cu 1.173501232342737399e+00 4.744705100859746873e-03 0.000000000000000000e+00
Cu 1.173083592387000218e+00 1.089400596084631606e-01 0.000000000000000000e+00
Cu 1.172782694566047113e+00 2.131599673397419625e-01 0.000000000000000000e+00
Cu 1.172594485814126397e+00 3.173804463603251413e-01 0.000000000000000000e+00
Cu 1.172521466444803817e+00 4.215880720405064674e-01 0.000000000000000000e+00
Cu 1.172573830356613112e+00 5.257798608340064073e-01 0.000000000000000000e+00
Cu 1.172741321485207155e+00 6.299838019065872041e-01 0.000000000000000000e+00
Cu 1.173004544894886259e+00 7.342194232953032085e-01 0.000000000000000000e+00
Cu 1.173375008338746417e+00 8.384706101876545636e-01 0.000000000000000000e+00
Cu 1.173871165851809728e+00 9.427046564839958176e-01 0.000000000000000000e+00
Cu 1.281078468975986429e+00 5.343050535130211207e-03 0.000000000000000000e+00
Cu 1.280637245641777833e+00 1.094288005240668243e-01 0.000000000000000000e+00
Cu 1.280338582851506812e+00 2.135209458931006943e-01 0.000000000000000000e+00
Cu 1.280165017149550444e+00 3.175925160161408578e-01 0.000000000000000000e+00
Cu 1.280104333873517630e+00 4.216379097147027744e-01 0.000000000000000000e+00
Cu 1.280145266025255468e+00 5.256751346692848381e-01 0.000000000000000000e+00
Cu 1.280279941961884660e+00 6.297309476677267481e-01 0.000000000000000000e+00
Cu 1.280515257731095424e+00 7.338189931984188119e-01 0.000000000000000000e+00
Cu 1.280871417591504358e+00 8.379323320305610556e-01 0.000000000000000000e+00
Cu 1.281367432224078673e+00 9.420479426926833266e-01 0.000000000000000000e+00
Cu 1.388858871499854208e+00 5.999098363550992713e-03 0.000000000000000000e+00
Cu 1.388421569053523541e+00 1.099752059211589611e-01 0.000000000000000000e+00
Cu 1.388157105995762919e+00 2.139331795188811336e-01 0.000000000000000000e+00
Cu 1.388025212778425166e+00 3.178451584419225151e-01 0.000000000000000000e+00
Cu 1.387987803593994762e+00 4.217145401674276539e-01 0.000000000000000000e+00
Cu 1.388017978875731862e+00 5.255701100236579437e-01 0.000000000000000000e+00
Cu 1.388113119073344226e+00 6.294487019960004481e-01 0.000000000000000000e+00
Cu 1.388297052045694313e+00 7.333754717203846418e-01 0.000000000000000000e+00
Cu 1.388607627682076462e+00 8.373523760329668608e-01 0.000000000000000000e+00
Cu 1.389084707313194667e+00 9.413529930374796573e-01 0.000000000000000000e+00
Cu 1.496830832049968807e+00 6.686683783628869816e-03 0.000000000000000000e+00
Cu 1.496443354319058505e+00 1.105564141993165550e-01 0.000000000000000000e+00
Cu 1.496262404234338650e+00 2.143745835312784176e-01 0.000000000000000000e+00
Cu 1.496214382568517243e+00 3.181182322091165027e-01 0.000000000000000000e+00
Cu 1.496226487736652011e+00 4.218024601512519456e-01 0.000000000000000000e+00
Cu 1.496249544072819626e+00 5.254666612702251216e-01 0.000000000000000000e+00
Cu 1.496282515400064739e+00 6.291575246612544081e-01 0.000000000000000000e+00
Cu 1.496372402730518969e+00 7.329131921890930101e-01 0.000000000000000000e+00
Cu 1.496590046457012768e+00 8.367475631051458640e-01 0.000000000000000000e+00
Cu 1.497007885832030150e+00 9.406371186804812767e-01 0.000000000000000000e+00
Cu 1.604971826593248441e+00 7.356576559586469263e-03 0.000000000000000000e+00
Cu 1.604709663924557717e+00 1.111241230808063252e-01 0.000000000000000000e+00
Cu 1.604685525509788713e+00 2.147915585924976833e-01 0.000000000000000000e+00
Cu 1.604774931022704854e+00 3.183613370833316969e-01 0.000000000000000000e+00
Cu 1.604862792225209889e+00 4.218778936747749064e-01 0.000000000000000000e+00
Cu 1.604881021808854058e+00 5.253825553819141403e-01 0.000000000000000000e+00
Cu 1.604828858056793539e+00 6.289039567677874309e-01 0.000000000000000000e+00
Cu 1.604772739754972255e+00 7.324829681495510503e-01 0.000000000000000000e+00
Cu 1.604826075811695008e+00 8.361631621010967574e-01 0.000000000000000000e+00
Cu 1.605112063463947303e+00 9.399459506601645087e-01 0.000000000000000000e+00
Cu 1.713243761844124524e+00 7.923295960664983664e-03 0.000000000000000000e+00
Cu 1.713238682897348930e+00 1.115895838834134179e-01 0.000000000000000000e+00
Cu 1.713476060394296452e+00 2.150834947310410750e-01 0.000000000000000000e+00
Cu 1.713742467461910612e+00 3.184893966391031395e-01 0.000000000000000000e+00
Cu 1.713900099268373278e+00 4.219073629073148424e-01 0.000000000000000000e+00
Cu 1.713914986886689196e+00 5.253475961584109788e-01 0.000000000000000000e+00
Cu 1.713786434427065020e+00 6.287691621990394442e-01 0.000000000000000000e+00
Cu 1.713547030896607426e+00 7.321819507902093127e-01 0.000000000000000000e+00
Cu 1.713333313138720060e+00 8.356853569464457454e-01 0.000000000000000000e+00
Cu 1.713357645747572988e+00 9.393627148011323147e-01 0.000000000000000000e+00
Cu 1.821576714573226674e+00 8.225307697547552116e-03 0.000000000000000000e+00
Cu 1.822088679009401302e+00 1.117843803934150809e-01 0.000000000000000000e+00
Cu 1.822711628444560805e+00 2.150804366042242677e-01 0.000000000000000000e+00
Cu 1.823112574857604029e+00 3.184117233496931432e-01 0.000000000000000000e+00
Cu 1.823281231923518764e+00 4.218713350363806347e-01 0.000000000000000000e+00
Cu 1.823293893236757945e+00 5.253782811577433209e-01 0.000000000000000000e+00
Cu 1.823149929729563690e+00 6.288406570040971921e-01 0.000000000000000000e+00
Cu 1.822771831517468577e+00 7.321771225445489195e-01 0.000000000000000000e+00
Cu 1.822168836050063412e+00 8.354800847200735125e-01 0.000000000000000000e+00
Cu 1.821673253829914962e+00 9.390467889748210784e-01 0.000000000000000000e+00
Cu 1.929834845770169061e+00 7.893135815728745744e-03 0.000000000000000000e+00
Cu 1.931431664334026799e+00 1.113257675476740094e-01 0.000000000000000000e+00
Cu 1.932405091572476419e+00 2.146002816232790711e-01 0.000000000000000000e+00
Cu 1.932780409896462936e+00 3.181405547711309567e-01 0.000000000000000000e+00
Cu 1.932921004375297791e+00 4.217850839928498630e-01 0.000000000000000000e+00
Cu 1.932932267856896535e+00 5.254566123678910960e-01 0.000000000000000000e+00
Cu 1.932813672887686574e+00 6.291035248815980419e-01 0.000000000000000000e+00
Cu 1.932458788662517746e+00 7.326481085249686442e-01 0.000000000000000000e+00
Cu 1.931503297541640185e+00 8.359279869764326687e-01 0.000000000000000000e+00
Cu 1.929921398602938876e+00 9.393657760926563682e-01 0.000000000000000000e+00
Cu 2.037762739216152141e+00 5.359457442947196046e-03 0.000000000000000000e+00
Cu 2.041308046089179484e+00 1.096860184345618827e-01 0.000000000000000000e+00
Cu 2.042260026428358799e+00 2.138367694740994363e-01 0.000000000000000000e+00
Cu 2.042640623837657099e+00 3.178118337082587175e-01 0.000000000000000000e+00
Cu 2.042776002811443448e+00 4.216891803928753402e-01 0.000000000000000000e+00
Cu 2.042786391256930401e+00 5.255395290399021979e-01 0.000000000000000000e+00
Cu 2.042671391133201286e+00 6.294194111952656767e-01 0.000000000000000000e+00
Cu 2.042310009383106806e+00 7.333989967401544074e-01 0.000000000000000000e+00
Cu 2.041375386458924357e+00 8.375551143708550583e-01 0.000000000000000000e+00
Cu 2.037845094933103063e+00 9.418862139160371072e-01 0.000000000000000000e+00
