200

Cu 0.000000000000000000e+00 2.284898077945282657e-02 0.000000000000000000e+00
Cu 0.000000000000000000e+00 1.236603376325885878e-01 0.000000000000000000e+00
Cu 0.000000000000000000e+00 2.238208508707032196e-01 0.000000000000000000e+00
Cu 0.000000000000000000e+00 3.236925877003876684e-01 0.000000000000000000e+00
Cu 0.000000000000000000e+00 4.234731146024120485e-01 0.000000000000000000e+00
Cu 0.000000000000000000e+00 5.232580471642087616e-01 0.000000000000000000e+00
Cu 0.000000000000000000e+00 6.231219903061457899e-01 0.000000000000000000e+00
Cu 0.000000000000000000e+00 7.231506138154146779e-01 0.000000000000000000e+00
Cu 0.000000000000000000e+00 8.235201122858967215e-01 0.000000000000000000e+00
Cu 0.000000000000000000e+00 9.245590666524625689e-01 0.000000000000000000e+00
Cu 1.182520958428001506e-01 2.557593383790769670e-02 0.000000000000000000e+00
Cu 1.174056251474273754e-01 1.245983519310288890e-01 0.000000000000000000e+00
Cu 1.173310384296429171e-01 2.242161231934065857e-01 0.000000000000000000e+00
Cu 1.172794741941945440e-01 3.238861877345864948e-01 0.000000000000000000e+00
Cu 1.172134585113568245e-01 4.235445393738921926e-01 0.000000000000000000e+00
Cu 1.171269921726779684e-01 5.232284652942500447e-01 0.000000000000000000e+00
Cu 1.170250122622403383e-01 6.229768401250203036e-01 0.000000000000000000e+00
Cu 1.169218223856028083e-01 7.228157777203138012e-01 0.000000000000000000e+00
Cu 1.168588728161397694e-01 8.226719484613893574e-01 0.000000000000000000e+00
Cu 1.175522043097581293e-01 9.220162630394739267e-01 0.000000000000000000e+00
Cu 2.361529823936547590e-01 2.688912446881235388e-02 0.000000000000000000e+00
Cu 2.353931307175933796e-01 1.258392464908646424e-01 0.000000000000000000e+00
Cu 2.349578630738246576e-01 2.249611343143682329e-01 0.000000000000000000e+00
Cu 2.347632591822547132e-01 3.243141933574178459e-01 0.000000000000000000e+00
Cu 2.345922846866241029e-01 4.237499821353673535e-01 0.000000000000000000e+00
Cu 2.344121428267147422e-01 5.232369790597873882e-01 0.000000000000000000e+00
Cu 2.342394234291564348e-01 6.227699725502787720e-01 0.000000000000000000e+00
Cu 2.341232890293578617e-01 7.222984589118016663e-01 0.000000000000000000e+00
Cu 2.342677802805429033e-01 8.216731569674338154e-01 0.000000000000000000e+00
Cu 2.347498644351592445e-01 9.209562422442635343e-01 0.000000000000000000e+00
Cu 3.539948014198123771e-01 2.789521138225524791e-02 0.000000000000000000e+00
Cu 3.533402889957218407e-01 1.268206724503242455e-01 0.000000000000000000e+00
Cu 3.528472276315260947e-01 2.258147181365164347e-01 0.000000000000000000e+00
Cu 3.525107052462456703e-01 3.249154269216762980e-01 0.000000000000000000e+00
Cu 3.522325263562349762e-01 4.240907381200656467e-01 0.000000000000000000e+00
Cu 3.519457262795849251e-01 5.233053791305070090e-01 0.000000000000000000e+00
Cu 3.517002288026560564e-01 6.225649586050157058e-01 0.000000000000000000e+00
Cu 3.515819733265043157e-01 7.218247742878242112e-01 0.000000000000000000e+00
Cu 3.516335395008006182e-01 8.210616493726975440e-01 0.000000000000000000e+00
Cu 3.518561528808482053e-01 9.203310096637492554e-01 0.000000000000000000e+00
Cu 4.718713077799034372e-01 2.876029713991165235e-02 0.000000000000000000e+00
Cu 4.712960567749576168e-01 1.276568663913613955e-01 0.000000000000000000e+00
Cu 4.708362384281339907e-01 2.265970064210147683e-01 0.000000000000000000e+00
Cu 4.704842294611344400e-01 3.255833892527247864e-01 0.000000000000000000e+00
Cu 4.701860299388294639e-01 4.245785604300714722e-01 0.000000000000000000e+00
Cu 4.698081766481260746e-01 5.234961405949970503e-01 0.000000000000000000e+00
Cu 4.694012437639288882e-01 6.224383065485783462e-01 0.000000000000000000e+00
Cu 4.691415383861340382e-01 7.215341623215386635e-01 0.000000000000000000e+00
Cu 4.690010587628877792e-01 8.207462175616945244e-01 0.000000000000000000e+00
Cu 4.689249605475381832e-01 9.200293255135092441e-01 0.000000000000000000e+00
Cu 5.898301194443859030e-01 2.953841379597693662e-02 0.000000000000000000e+00
Cu 5.893179020546301938e-01 1.283859298121689529e-01 0.000000000000000000e+00
Cu 5.889099883428619009e-01 2.272806068665805257e-01 0.000000000000000000e+00
Cu 5.886076971436581262e-01 3.262169089287624835e-01 0.000000000000000000e+00
Cu 5.883725317123493781e-01 4.251533859391630199e-01 0.000000000000000000e+00
Cu 5.881230839533831967e-01 5.239854293350293402e-01 0.000000000000000000e+00
Cu 5.874302398802707659e-01 6.224713065020899272e-01 0.000000000000000000e+00
Cu 5.867048364223454993e-01 7.213173240047272561e-01 0.000000000000000000e+00
Cu 5.863425300269641260e-01 8.207240597579101848e-01 0.000000000000000000e+00
Cu 5.859647247336421394e-01 9.201832681385518908e-01 0.000000000000000000e+00
Cu 7.079182996518158522e-01 3.024835960956010969e-02 0.000000000000000000e+00
Cu 7.074546816323856735e-01 1.290215705323667084e-01 0.000000000000000000e+00
Cu 7.070915170272630279e-01 2.278522719570076627e-01 0.000000000000000000e+00
Cu 7.068393826147085779e-01 3.267432312619229506e-01 0.000000000000000000e+00
Cu 7.067020652022434346e-01 4.256839720295200191e-01 0.000000000000000000e+00
Cu 7.065897511070219350e-01 5.246151511456729200e-01 0.000000000000000000e+00
Cu 7.064750090257394533e-01 6.233665208892924525e-01 0.000000000000000000e+00
Cu 7.043456357824632308e-01 7.208349753747089750e-01 0.000000000000000000e+00
Cu 7.029130801695115949e-01 8.208244270107609708e-01 0.000000000000000000e+00
Cu 7.033217937897795480e-01 9.210188942266767098e-01 0.000000000000000000e+00
Cu 8.261861266484208377e-01 3.090501559926804934e-02 0.000000000000000000e+00
Cu 8.257569632179078134e-01 1.295755924017140681e-01 0.000000000000000000e+00
Cu 8.254219364592481067e-01 2.283098042017239204e-01 0.000000000000000000e+00
Cu 8.252023044729751566e-01 3.271184915796944703e-01 0.000000000000000000e+00
Cu 8.251040332405822353e-01 4.260178720645660944e-01 0.000000000000000000e+00
Cu 8.251646908509446821e-01 5.250394263876588807e-01 0.000000000000000000e+00
Cu 8.251090180446809530e-01 6.242190634799056337e-01 0.000000000000000000e+00
Cu 8.258575612897343099e-01 7.236466224091939736e-01 0.000000000000000000e+00
Cu 8.149926467903202409e-01 8.191498653728075396e-01 0.000000000000000000e+00
Cu 8.232290160951186708e-01 9.198028023312828649e-01 0.000000000000000000e+00
Cu 9.446846343323902495e-01 3.152615543634069983e-02 0.000000000000000000e+00
Cu 9.442773154637249533e-01 1.300655302844358208e-01 0.000000000000000000e+00
Cu 9.439603173779878009e-01 2.286646200170618926e-01 0.000000000000000000e+00
Cu 9.437556848505009865e-01 3.273304759130066799e-01 0.000000000000000000e+00
Cu 9.436929492770788075e-01 4.260795859808546027e-01 0.000000000000000000e+00
Cu 9.437522672224832876e-01 5.249462474951778201e-01 0.000000000000000000e+00
Cu 9.442042800704291139e-01 6.239708047886329823e-01 0.000000000000000000e+00
Cu 9.440880274793644888e-01 7.232486812254302899e-01 0.000000000000000000e+00
Cu 9.557551449293569812e-01 8.184942522398007680e-01 0.000000000000000000e+00
Cu 9.485023548193753928e-01 9.190748426554231632e-01 0.000000000000000000e+00
Cu 1.063460177543170682e+00 3.213221607536759922e-02 0.000000000000000000e+00
Cu 1.063067367973599797e+00 1.305146661978925093e-01 0.000000000000000000e+00
Cu 1.062769250967843471e+00 2.289392836971338441e-01 0.000000000000000000e+00
Cu 1.062595062187143169e+00 3.273955562576293388e-01 0.000000000000000000e+00
Cu 1.062573639847812945e+00 4.258733448809844391e-01 0.000000000000000000e+00
Cu 1.062812143707042578e+00 5.243261607067291052e-01 0.000000000000000000e+00
Cu 1.063324232786204471e+00 6.226016172443337160e-01 0.000000000000000000e+00
Cu 1.066093850583491376e+00 7.195963255459152386e-01 0.000000000000000000e+00
Cu 1.068370087380152489e+00 8.191260299008082946e-01 0.000000000000000000e+00
Cu 1.068997385546953893e+00 9.188850927400978863e-01 0.000000000000000000e+00
Cu 1.182548171507426638e+00 3.274441242833862203e-02 0.000000000000000000e+00
Cu 1.182170085085219036e+00 1.309510314958655386e-01 0.000000000000000000e+00
Cu 1.181908115427383610e+00 2.291676332240693004e-01 0.000000000000000000e+00
Cu 1.181791961316042361e+00 3.273593163284167495e-01 0.000000000000000000e+00
Cu 1.181882514530313344e+00 4.254847785092298329e-01 0.000000000000000000e+00
Cu 1.182266154178157835e+00 5.234722374379653376e-01 0.000000000000000000e+00
Cu 1.183365567434210730e+00 6.211256209894486791e-01 0.000000000000000000e+00
Cu 1.184751246814825132e+00 7.191812290639031380e-01 0.000000000000000000e+00
Cu 1.186002301479236465e+00 8.178486012769274893e-01 0.000000000000000000e+00
Cu 1.187446268199134458e+00 9.165879844531523712e-01 0.000000000000000000e+00
Cu 1.301964993007849403e+00 3.338176110198965568e-02 0.000000000000000000e+00
Cu 1.301613150764687088e+00 1.314055207165287231e-01 0.000000000000000000e+00
Cu 1.301416246767177265e+00 2.293954952038921857e-01 0.000000000000000000e+00
Cu 1.301396671747835576e+00 3.272966429738450311e-01 0.000000000000000000e+00
Cu 1.301597931818388121e+00 4.250737771229677331e-01 0.000000000000000000e+00
Cu 1.302128256295518094e+00 5.227091910112733331e-01 0.000000000000000000e+00
Cu 1.302931382978879782e+00 6.204035071171396520e-01 0.000000000000000000e+00
Cu 1.303845997027189840e+00 7.183582199541747038e-01 0.000000000000000000e+00
Cu 1.304895056482032079e+00 8.165404483605740449e-01 0.000000000000000000e+00
Cu 1.306103336229179623e+00 9.148489962178432133e-01 0.000000000000000000e+00
Cu 1.421700252082259031e+00 3.405418394091327960e-02 0.000000000000000000e+00
Cu 1.421401919366748201e+00 1.319044805043730340e-01 0.000000000000000000e+00
Cu 1.421313186966695730e+00 2.296699837054911597e-01 0.000000000000000000e+00
Cu 1.421417502085779550e+00 3.272897008065586699e-01 0.000000000000000000e+00
Cu 1.421715123693787497e+00 4.247622513602622440e-01 0.000000000000000000e+00
Cu 1.422181240005396585e+00 5.221849610205423486e-01 0.000000000000000000e+00
Cu 1.422760613922624318e+00 6.197070200174081833e-01 0.000000000000000000e+00
Cu 1.423444917508431162e+00 7.174179743656813324e-01 0.000000000000000000e+00
Cu 1.424273238059185820e+00 8.153271278093415786e-01 0.000000000000000000e+00
Cu 1.425253888988086359e+00 9.133934383519961564e-01 0.000000000000000000e+00
Cu 1.541711137384467634e+00 3.474910022228798467e-02 0.000000000000000000e+00
Cu 1.541519411568044617e+00 1.324525327417843401e-01 0.000000000000000000e+00
Cu 1.541601868786173224e+00 2.300135888763229775e-01 0.000000000000000000e+00
Cu 1.541873669321844442e+00 3.273752269779035551e-01 0.000000000000000000e+00
Cu 1.542245436328666841e+00 4.245769645844195139e-01 0.000000000000000000e+00
Cu 1.542639426294525995e+00 5.217383898160925515e-01 0.000000000000000000e+00
Cu 1.543032504919399583e+00 6.189994056353798069e-01 0.000000000000000000e+00
Cu 1.543472075460408766e+00 7.164611041131578872e-01 0.000000000000000000e+00
Cu 1.544039853861858713e+00 8.141584613156604977e-01 0.000000000000000000e+00
Cu 1.544813614284169079e+00 9.120407345153040968e-01 0.000000000000000000e+00
Cu 1.661920983270947838e+00 3.541179723038297145e-02 0.000000000000000000e+00
Cu 1.661931483302787838e+00 1.330084523523845097e-01 0.000000000000000000e+00
Cu 1.662288180522156322e+00 2.303891891373665846e-01 0.000000000000000000e+00
Cu 1.662806441707448402e+00 3.275138465210398198e-01 0.000000000000000000e+00
Cu 1.663301343801822263e+00 4.244530054979134825e-01 0.000000000000000000e+00
Cu 1.663643053369490366e+00 5.213416170471387723e-01 0.000000000000000000e+00
Cu 1.663818883927102199e+00 6.183295746842826235e-01 0.000000000000000000e+00
Cu 1.663935121796435990e+00 7.155435501082102467e-01 0.000000000000000000e+00
Cu 1.664159364859683743e+00 8.130458167136676018e-01 0.000000000000000000e+00
Cu 1.664666698378929111e+00 9.107905680952171901e-01 0.000000000000000000e+00
Cu 1.782216990931093870e+00 3.592159604819063212e-02 0.000000000000000000e+00
Cu 1.782599213897894774e+00 1.334586952498912626e-01 0.000000000000000000e+00
Cu 1.783397303526062183e+00 2.306697467565399506e-01 0.000000000000000000e+00
Cu 1.784284455975976069e+00 3.275744563285990507e-01 0.000000000000000000e+00
Cu 1.784967140927340434e+00 4.243155068384507067e-01 0.000000000000000000e+00
Cu 1.785271529106412292e+00 5.210268575931426005e-01 0.000000000000000000e+00
Cu 1.785187370441803534e+00 6.178057371270830878e-01 0.000000000000000000e+00
Cu 1.784869234132186122e+00 7.147821549780928319e-01 0.000000000000000000e+00
Cu 1.784595248504561305e+00 8.120920937136667517e-01 0.000000000000000000e+00
Cu 1.784681849813053001e+00 9.097476427822510647e-01 0.000000000000000000e+00
Cu 1.902433617917833164e+00 3.605605374703049065e-02 0.000000000000000000e+00
Cu 1.903500365818262319e+00 1.335812288245172286e-01 0.000000000000000000e+00
Cu 1.905002945141760939e+00 2.305998461087034601e-01 0.000000000000000000e+00
Cu 1.906369798477183020e+00 3.273334946959236547e-01 0.000000000000000000e+00
Cu 1.907235136305341250e+00 4.240696231575472597e-01 0.000000000000000000e+00
Cu 1.907513932755810604e+00 5.208624132987482724e-01 0.000000000000000000e+00
Cu 1.907196226077072509e+00 6.176272732575119884e-01 0.000000000000000000e+00
Cu 1.906348822066153748e+00 7.144157569940939867e-01 0.000000000000000000e+00
Cu 1.905324333026706451e+00 8.115104172632336965e-01 0.000000000000000000e+00
Cu 1.904685840973904254e+00 9.091265708376167209e-01 0.000000000000000000e+00
Cu 2.022287049887673049e+00 3.539509329076718364e-02 0.000000000000000000e+00
Cu 2.024693391241534801e+00 1.329460534902013602e-01 0.000000000000000000e+00
Cu 2.027265804979800912e+00 2.297269823366621389e-01 0.000000000000000000e+00
Cu 2.029041000170658915e+00 3.265331023041864733e-01 0.000000000000000000e+00
Cu 2.029953583630765834e+00 4.236535156875628205e-01 0.000000000000000000e+00
Cu 2.030216496313543395e+00 5.208878486893897541e-01 0.000000000000000000e+00
Cu 2.029819715014642423e+00 6.180313930325205263e-01 0.000000000000000000e+00
Cu 2.028531298968518026e+00 7.148811586867537260e-01 0.000000000000000000e+00
Cu 2.026402137758267052e+00 8.117210057970191128e-01 0.000000000000000000e+00
Cu 2.024390437400003684e+00 9.093405090923361023e-01 0.000000000000000000e+00
Cu 2.141166998421563772e+00 3.294775407369861936e-02 0.000000000000000000e+00
Cu 2.146549504247350804e+00 1.305321633852033480e-01 0.000000000000000000e+00
Cu 2.150258779185483693e+00 2.274935439020374373e-01 0.000000000000000000e+00
Cu 2.152013321356185394e+00 3.251801322615409662e-01 0.000000000000000000e+00
Cu 2.152904395590220954e+00 4.230897572716715849e-01 0.000000000000000000e+00
Cu 2.153158416473798020e+00 5.210590014118688940e-01 0.000000000000000000e+00
Cu 2.152766235962165986e+00 6.189921443179048355e-01 0.000000000000000000e+00
Cu 2.151482653833701075e+00 7.167208622543028707e-01 0.000000000000000000e+00
Cu 2.148197754500790424e+00 8.137369227334156907e-01 0.000000000000000000e+00
Cu 2.143183796757112347e+00 9.113771451884512542e-01 0.000000000000000000e+00
Cu 2.257406236215492523e+00 2.418144416422474477e-02 0.000000000000000000e+00
Cu 2.269535962792421202e+00 1.246198847028336665e-01 0.000000000000000000e+00
Cu 2.273155659940627515e+00 2.244630443716441603e-01 0.000000000000000000e+00
Cu 2.275054424532139130e+00 3.236481220189265651e-01 0.000000000000000000e+00
Cu 2.275954258521178275e+00 4.224883245575409285e-01 0.000000000000000000e+00
Cu 2.276203002575694967e+00 5.212442744906835568e-01 0.000000000000000000e+00
Cu 2.275793052466703603e+00 6.201151892512483110e-01 0.000000000000000000e+00
Cu 2.274361607406583108e+00 7.193562432333944212e-01 0.000000000000000000e+00
Cu 2.271170255074084654e+00 8.192678432371872654e-01 0.000000000000000000e+00
Cu 2.259413168319686527e+00 9.197825418744143278e-01 0.000000000000000000e+00
