200

Cu 0.000000000000000000e+00 8.247420217534006531e-03 0.000000000000000000e+00
Cu 0.000000000000000000e+00 1.130271725487348861e-01 0.000000000000000000e+00
Cu 0.000000000000000000e+00 2.178802748160051372e-01 0.000000000000000000e+00
Cu 0.000000000000000000e+00 3.228539776320011323e-01 0.000000000000000000e+00
Cu 0.000000000000000000e+00 4.279614365948636312e-01 0.000000000000000000e+00
Cu 0.000000000000000000e+00 5.331981758271803207e-01 0.000000000000000000e+00
Cu 0.000000000000000000e+00 6.385563154120410534e-01 0.000000000000000000e+00
Cu 0.000000000000000000e+00 7.440291053108570862e-01 0.000000000000000000e+00
Cu 0.000000000000000000e+00 8.496053648492130073e-01 0.000000000000000000e+00
Cu 0.000000000000000000e+00 9.552572650763957451e-01 0.000000000000000000e+00
Cu 1.070267517492215770e-01 8.780121398664117449e-03 0.000000000000000000e+00
Cu 1.065581146227576742e-01 1.132976016445072093e-01 0.000000000000000000e+00
Cu 1.062105069489514275e-01 2.180873152016755967e-01 0.000000000000000000e+00
Cu 1.058778833060467495e-01 3.230525965651551701e-01 0.000000000000000000e+00
Cu 1.055539410036978459e-01 4.281667222854988464e-01 0.000000000000000000e+00
Cu 1.052354920316925374e-01 5.334151571138306958e-01 0.000000000000000000e+00
Cu 1.049173038861739710e-01 6.387859879441533106e-01 0.000000000000000000e+00
Cu 1.045901241110851893e-01 7.442750482756926855e-01 0.000000000000000000e+00
Cu 1.042371552497121240e-01 8.499032341402250612e-01 0.000000000000000000e+00
Cu 1.037486519170081056e-01 9.557759531313293477e-01 0.000000000000000000e+00
Cu 2.139903828125118423e-01 9.471950895215148353e-03 0.000000000000000000e+00
Cu 2.131793462521226479e-01 1.140036908532773285e-01 0.000000000000000000e+00
Cu 2.124302315979354205e-01 2.187442726096216206e-01 0.000000000000000000e+00
Cu 2.117415929915242856e-01 3.236981449644614761e-01 0.000000000000000000e+00
Cu 2.110843509625540959e-01 4.288253613636673900e-01 0.000000000000000000e+00
Cu 2.104471496474424053e-01 5.340984610672963040e-01 0.000000000000000000e+00
Cu 2.098153204343473077e-01 6.394987361627857414e-01 0.000000000000000000e+00
Cu 2.091622107057904412e-01 7.450221945395381073e-01 0.000000000000000000e+00
Cu 2.084337556081287957e-01 8.506941768847856578e-01 0.000000000000000000e+00
Cu 2.075943235691047328e-01 9.565264053267673594e-01 0.000000000000000000e+00
Cu 3.208945274213143573e-01 1.049883718457132048e-02 0.000000000000000000e+00
Cu 3.197381634913601944e-01 1.150529756644616403e-01 0.000000000000000000e+00
Cu 3.186243460073483469e-01 2.198101084344282474e-01 0.000000000000000000e+00
Cu 3.175691144013163547e-01 3.247705097661280904e-01 0.000000000000000000e+00
Cu 3.165711363009870993e-01 4.299178967393873507e-01 0.000000000000000000e+00
Cu 3.156172521564676314e-01 5.352225997307057392e-01 0.000000000000000000e+00
Cu 3.146860844481323971e-01 6.406587789193798343e-01 0.000000000000000000e+00
Cu 3.137366864334340533e-01 7.462097916307354195e-01 0.000000000000000000e+00
Cu 3.127171827284266903e-01 8.518660542648270884e-01 0.000000000000000000e+00
Cu 3.115782684852539952e-01 9.576371301010182524e-01 0.000000000000000000e+00
Cu 4.277306891928510657e-01 1.187378094573982891e-02 0.000000000000000000e+00
Cu 4.262174755410514382e-01 1.164567312599606580e-01 0.000000000000000000e+00
Cu 4.247420527646322275e-01 2.212455888366244294e-01 0.000000000000000000e+00
Cu 4.233301286998002455e-01 3.262365598182819793e-01 0.000000000000000000e+00
Cu 4.219947381441533918e-01 4.314113458493415432e-01 0.000000000000000000e+00
Cu 4.207350713975698819e-01 5.367432248208052759e-01 0.000000000000000000e+00
Cu 4.195338408550130516e-01 6.422015741483017015e-01 0.000000000000000000e+00
Cu 4.183512686116293011e-01 7.477546191178413570e-01 0.000000000000000000e+00
Cu 4.171207024105683114e-01 8.533746205392708228e-01 0.000000000000000000e+00
Cu 4.157586029351663104e-01 9.590583307843210115e-01 0.000000000000000000e+00
Cu 5.344934924997720715e-01 1.360403143099163034e-02 0.000000000000000000e+00
Cu 5.326068937048357155e-01 1.182134354900733209e-01 0.000000000000000000e+00
Cu 5.307596851088688394e-01 2.230366679245312789e-01 0.000000000000000000e+00
Cu 5.289956533926210014e-01 3.280642752750497770e-01 0.000000000000000000e+00
Cu 5.273405481799762207e-01 4.332665338287440271e-01 0.000000000000000000e+00
Cu 5.258021423259414684e-01 5.386046250080546161e-01 0.000000000000000000e+00
Cu 5.243742230992223252e-01 6.440467645265210983e-01 0.000000000000000000e+00
Cu 5.230234628730491275e-01 7.495633747864297591e-01 0.000000000000000000e+00
Cu 5.216728899458016322e-01 8.551249472601266666e-01 0.000000000000000000e+00
Cu 5.201992682542793123e-01 9.606990795069068056e-01 0.000000000000000000e+00
Cu 6.411881215921565458e-01 1.570447161306988415e-02 0.000000000000000000e+00
Cu 6.389022968271147462e-01 1.203295985033378118e-01 0.000000000000000000e+00
Cu 6.366622595024011844e-01 2.251740447978388404e-01 0.000000000000000000e+00
Cu 6.345460743679032234e-01 3.302287587872718144e-01 0.000000000000000000e+00
Cu 6.325993742279840681e-01 4.354433655431702577e-01 0.000000000000000000e+00
Cu 6.308379753374541155e-01 5.407540280111300390e-01 0.000000000000000000e+00
Cu 6.292426108028394971e-01 6.461074545663719748e-01 0.000000000000000000e+00
Cu 6.277814146694742359e-01 7.515147864980225023e-01 0.000000000000000000e+00
Cu 6.263911544518672159e-01 8.569671860564213040e-01 0.000000000000000000e+00
Cu 6.249554643521345598e-01 9.624198782639414862e-01 0.000000000000000000e+00
Cu 7.478222057857062399e-01 1.820776870533111561e-02 0.000000000000000000e+00
Cu 7.451107291539625921e-01 1.228331800518715489e-01 0.000000000000000000e+00
Cu 7.424481078617466423e-01 2.276645042276103093e-01 0.000000000000000000e+00
Cu 7.399642127487817689e-01 3.327063883031874392e-01 0.000000000000000000e+00
Cu 7.377673331731970929e-01 4.379029833235529856e-01 0.000000000000000000e+00
Cu 7.358728419859426051e-01 5.431237341637996652e-01 0.000000000000000000e+00
Cu 7.342281595133575145e-01 6.483122564818647460e-01 0.000000000000000000e+00
Cu 7.326802780476313615e-01 7.534704600832412558e-01 0.000000000000000000e+00
Cu 7.313004679507607575e-01 8.587324666719664545e-01 0.000000000000000000e+00
Cu 7.300660549361779328e-01 9.639368468251205968e-01 0.000000000000000000e+00
Cu 8.543886852760145256e-01 2.114681574453814231e-02 0.000000000000000000e+00
Cu 8.512389140498116680e-01 1.257783892881094434e-01 0.000000000000000000e+00
Cu 8.481426645408314258e-01 2.305598814806403551e-01 0.000000000000000000e+00
Cu 8.452537948618363828e-01 3.354965984725221673e-01 0.000000000000000000e+00
Cu 8.428242525026100607e-01 4.405770674703733403e-01 0.000000000000000000e+00
Cu 8.409992248433343365e-01 5.456208336520419477e-01 0.000000000000000000e+00
Cu 8.394016052959163421e-01 6.504896421787400573e-01 0.000000000000000000e+00
Cu 8.378096490949731301e-01 7.555392523312394193e-01 0.000000000000000000e+00
Cu 2.985200385242940957e+00 6.868053561348871350e-01 0.000000000000000000e+00
Cu 2.963268513902580725e+00 7.892341956117024937e-01 0.000000000000000000e+00
Cu 9.608688709910407910e-01 2.456547114291425873e-02 0.000000000000000000e+00
Cu 9.572495157001282839e-01 1.292016582082060883e-01 0.000000000000000000e+00
Cu 9.537676792068853215e-01 2.339875109601160796e-01 0.000000000000000000e+00
Cu 9.504952829161464889e-01 3.387166266056168551e-01 0.000000000000000000e+00
Cu 9.477995022759048149e-01 4.433987330816090422e-01 0.000000000000000000e+00
Cu 9.464415857229820928e-01 5.477913477500141459e-01 0.000000000000000000e+00
Cu 9.447793807803480659e-01 6.526461469569818652e-01 0.000000000000000000e+00
Cu 3.116536305242232796e+00 6.086853888764468534e-01 0.000000000000000000e+00
Cu 3.092921302151371510e+00 7.094213374106719261e-01 0.000000000000000000e+00
Cu 3.073313916344438734e+00 8.089511556879503962e-01 0.000000000000000000e+00
Cu 1.067210929805114894e+00 2.848812278720931276e-02 0.000000000000000000e+00
Cu 1.063110821674202233e+00 1.331858522662737465e-01 0.000000000000000000e+00
Cu 1.059155432272893771e+00 2.379375036843937863e-01 0.000000000000000000e+00
Cu 1.055718281847333184e+00 3.428571075452208072e-01 0.000000000000000000e+00
Cu 3.302404719948222045e+00 3.305613927205353630e-01 0.000000000000000000e+00
Cu 3.269168946630656158e+00 4.294520359745804816e-01 0.000000000000000000e+00
Cu 3.250507627677579503e+00 5.316630762528381515e-01 0.000000000000000000e+00
Cu 3.226143030167486714e+00 6.309959731276977291e-01 0.000000000000000000e+00
Cu 3.206226979425209844e+00 7.292907903256191648e-01 0.000000000000000000e+00
Cu 3.189561879072659867e+00 8.266011577663350263e-01 0.000000000000000000e+00
Cu 1.173382897235789812e+00 3.302808946978395832e-02 0.000000000000000000e+00
Cu 1.168670488864248513e+00 1.377344817557400736e-01 0.000000000000000000e+00
Cu 1.164383540740990153e+00 2.426837991907525582e-01 0.000000000000000000e+00
Cu 3.437758345242952096e+00 2.585371886773441541e-01 0.000000000000000000e+00
Cu 3.408054389942445361e+00 3.579732035148875946e-01 0.000000000000000000e+00
Cu 3.386615854463165043e+00 4.561696382780425774e-01 0.000000000000000000e+00
Cu 3.361324451396804136e+00 5.522797243091153163e-01 0.000000000000000000e+00
Cu 3.341998739733285095e+00 6.500480226762800351e-01 0.000000000000000000e+00
Cu 3.324935072866252561e+00 7.461093908498264149e-01 0.000000000000000000e+00
Cu 3.311065731076172636e+00 8.413483597049884466e-01 0.000000000000000000e+00
Cu 1.279245057074837932e+00 3.817320138904786025e-02 0.000000000000000000e+00
Cu 1.273983675585592668e+00 1.431079833086646436e-01 0.000000000000000000e+00
Cu 3.576339566002043391e+00 1.883705970672144014e-01 0.000000000000000000e+00
Cu 3.546531574506088358e+00 2.859241329807570287e-01 0.000000000000000000e+00
Cu 3.522259268026827428e+00 3.818986404629026166e-01 0.000000000000000000e+00
Cu 3.500686054132979841e+00 4.774214281810066351e-01 0.000000000000000000e+00
Cu 3.480712347418580599e+00 5.723294632203802523e-01 0.000000000000000000e+00
Cu 3.463125166859005066e+00 6.661185037730730230e-01 0.000000000000000000e+00
Cu 3.448694000447876551e+00 7.600059547664003157e-01 0.000000000000000000e+00
Cu 3.437060682480226337e+00 8.533240388826710543e-01 0.000000000000000000e+00
Cu 1.384818621889002843e+00 4.437595620565193411e-02 0.000000000000000000e+00
Cu 3.715032998806685249e+00 1.196543580697086717e-01 0.000000000000000000e+00
Cu 3.686755669652676204e+00 2.162349716282349066e-01 0.000000000000000000e+00
Cu 3.662909406818997127e+00 3.105656755790632273e-01 0.000000000000000000e+00
Cu 3.641795547081046358e+00 4.034961581430895339e-01 0.000000000000000000e+00
Cu 3.622643466892607744e+00 4.959398925405825165e-01 0.000000000000000000e+00
Cu 3.605251845702069247e+00 5.880133773364081273e-01 0.000000000000000000e+00
Cu 3.589844050712418522e+00 6.797593928481344694e-01 0.000000000000000000e+00
Cu 3.576912036417434049e+00 7.713603363149978964e-01 0.000000000000000000e+00
Cu 3.566997668091905549e+00 8.629168080159657084e-01 0.000000000000000000e+00
Cu 3.850511480748813220e+00 4.994602894005269883e-02 0.000000000000000000e+00
Cu 3.826734195750196577e+00 1.465808101056023938e-01 0.000000000000000000e+00
Cu 3.805304638846473519e+00 2.398993564288493530e-01 0.000000000000000000e+00
Cu 3.785857703227688997e+00 3.312825216658639160e-01 0.000000000000000000e+00
Cu 3.767811640676681062e+00 4.216288721047199428e-01 0.000000000000000000e+00
Cu 3.750859969828384877e+00 5.114559933079971810e-01 0.000000000000000000e+00
Cu 3.735141310255681635e+00 6.011196415035814367e-01 0.000000000000000000e+00
Cu 3.721055113356714905e+00 6.908115597370108052e-01 0.000000000000000000e+00
Cu 3.709221972998366645e+00 7.806499333712585420e-01 0.000000000000000000e+00
Cu 3.700361994807533250e+00 8.706167601358221209e-01 0.000000000000000000e+00
Cu 3.963073403021408758e+00 7.235116889235523874e-02 0.000000000000000000e+00
Cu 3.946870604251320636e+00 1.671121766531667441e-01 0.000000000000000000e+00
Cu 3.930837507546697029e+00 2.585067832205655280e-01 0.000000000000000000e+00
Cu 3.915194891013461298e+00 3.478982788784449887e-01 0.000000000000000000e+00
Cu 3.899753196934830690e+00 4.362984345182366885e-01 0.000000000000000000e+00
Cu 3.884543632748097775e+00 5.242781818217161494e-01 0.000000000000000000e+00
Cu 3.869905864326276035e+00 6.121176514180146633e-01 0.000000000000000000e+00
Cu 3.856460598558352881e+00 7.000656678983450121e-01 0.000000000000000000e+00
Cu 3.845057223246326927e+00 7.883544338317843847e-01 0.000000000000000000e+00
Cu 3.836693588679239930e+00 8.770069579151267281e-01 0.000000000000000000e+00
Cu 4.084648374768026891e+00 9.018531772769902699e-02 0.000000000000000000e+00
Cu 4.073949851837046943e+00 1.826790098185273881e-01 0.000000000000000000e+00
Cu 4.062700617470368591e+00 2.725212232126090761e-01 0.000000000000000000e+00
Cu 4.050390810139711029e+00 3.605773958378407085e-01 0.000000000000000000e+00
Cu 4.037013828600431786e+00 4.479153416548067868e-01 0.000000000000000000e+00
Cu 4.023077937213625610e+00 5.349707689667675403e-01 0.000000000000000000e+00
Cu 4.009131790773467152e+00 6.217204201525101670e-01 0.000000000000000000e+00
Cu 3.995770227198140123e+00 7.083116010596022250e-01 0.000000000000000000e+00
Cu 3.984045944066208378e+00 7.952359495702315817e-01 0.000000000000000000e+00
Cu 3.975429765999459075e+00 8.828007512999002104e-01 0.000000000000000000e+00
Cu 4.213283230551850167e+00 1.036282084586083452e-01 0.000000000000000000e+00
Cu 4.207678852242688450e+00 1.940954187098347938e-01 0.000000000000000000e+00
Cu 4.200789156267169311e+00 2.823644799787961013e-01 0.000000000000000000e+00
Cu 4.191038590373786121e+00 3.697989197069543321e-01 0.000000000000000000e+00
Cu 4.178941355622760589e+00 4.571521047340416088e-01 0.000000000000000000e+00
Cu 4.165850428291509644e+00 5.442319417262704295e-01 0.000000000000000000e+00
Cu 4.152493947386960649e+00 6.308635033624755417e-01 0.000000000000000000e+00
Cu 4.138904691595306495e+00 7.166587094301281047e-01 0.000000000000000000e+00
Cu 4.125906607114052882e+00 8.022999801017787203e-01 0.000000000000000000e+00
Cu 4.115804872019814376e+00 8.890303065862460441e-01 0.000000000000000000e+00
Cu 4.346789497708543948e+00 1.112559322826515013e-01 0.000000000000000000e+00
Cu 4.348200843951314454e+00 2.003104014807513544e-01 0.000000000000000000e+00
Cu 4.345367556254709385e+00 2.879002330868150050e-01 0.000000000000000000e+00
Cu 4.336338182309921407e+00 3.765512377957667689e-01 0.000000000000000000e+00
Cu 4.324991769341921533e+00 4.649504140614459935e-01 0.000000000000000000e+00
Cu 4.312401442558199349e+00 5.528171131025232388e-01 0.000000000000000000e+00
Cu 4.299295560406340755e+00 6.400806085941695978e-01 0.000000000000000000e+00
Cu 4.286205523983402266e+00 7.267201055210965599e-01 0.000000000000000000e+00
Cu 4.270749365741483672e+00 8.113381544165825243e-01 0.000000000000000000e+00
Cu 4.256168222757217734e+00 8.975071456783841883e-01 0.000000000000000000e+00
Cu 4.478994617552285007e+00 1.040873431391811099e-01 0.000000000000000000e+00
Cu 4.498296040276287933e+00 1.977982400708850341e-01 0.000000000000000000e+00
Cu 4.494139490688763949e+00 2.910647485619147767e-01 0.000000000000000000e+00
Cu 4.485921504924904823e+00 3.825676853020044121e-01 0.000000000000000000e+00
Cu 4.474763624405827755e+00 4.724886518883107955e-01 0.000000000000000000e+00
Cu 4.462405059814216202e+00 5.613180724245284692e-01 0.000000000000000000e+00
Cu 4.449561357288160934e+00 6.494869565238475806e-01 0.000000000000000000e+00
Cu 4.435812988723791150e+00 7.376468435425433956e-01 0.000000000000000000e+00
Cu 4.421721665137587465e+00 8.270417242254761714e-01 0.000000000000000000e+00
Cu 4.389641317617222427e+00 9.158401427587269383e-01 0.000000000000000000e+00
