200

Cu 0.000000000000000000e+00 6.448825282292131034e-02 0.000000000000000000e+00
Cu 0.000000000000000000e+00 1.566997810949649073e-01 0.000000000000000000e+00
Cu 0.000000000000000000e+00 2.468879038833105000e-01 0.000000000000000000e+00
Cu 0.000000000000000000e+00 3.361307015323279912e-01 0.000000000000000000e+00
Cu 0.000000000000000000e+00 4.250544752043406427e-01 0.000000000000000000e+00
Cu 0.000000000000000000e+00 5.140876033971506498e-01 0.000000000000000000e+00
Cu 0.000000000000000000e+00 6.036250020427017526e-01 0.000000000000000000e+00
Cu 0.000000000000000000e+00 6.940217116303669664e-01 0.000000000000000000e+00
Cu 0.000000000000000000e+00 7.857287430053560007e-01 0.000000000000000000e+00
Cu 0.000000000000000000e+00 8.794952622351476235e-01 0.000000000000000000e+00
Cu 1.417429298923749692e-01 7.131525686122873464e-02 0.000000000000000000e+00
Cu 1.400733984151713019e-01 1.591971094198754710e-01 0.000000000000000000e+00
Cu 1.399538341913991457e-01 2.480670783142204239e-01 0.000000000000000000e+00
Cu 1.397115530869811051e-01 3.367841755053768704e-01 0.000000000000000000e+00
Cu 1.392715345043522013e-01 4.253231745168424838e-01 0.000000000000000000e+00
Cu 1.385821883363997364e-01 5.139696377516750347e-01 0.000000000000000000e+00
Cu 1.377182829304736955e-01 6.030797646073072782e-01 0.000000000000000000e+00
Cu 1.368587677802432512e-01 6.929423285324557424e-01 0.000000000000000000e+00
Cu 1.361778374250020573e-01 7.834718524725380329e-01 0.000000000000000000e+00
Cu 1.372862723955084741e-01 8.734116583587248073e-01 0.000000000000000000e+00
Cu 2.826815934206424741e-01 7.488089374941678256e-02 0.000000000000000000e+00
Cu 2.812278099173502466e-01 1.624419879010182977e-01 0.000000000000000000e+00
Cu 2.804001349030026957e-01 2.502807332059437395e-01 0.000000000000000000e+00
Cu 2.798659471997536619e-01 3.383416681245008384e-01 0.000000000000000000e+00
Cu 2.790136354524102580e-01 4.263280253181450097e-01 0.000000000000000000e+00
Cu 2.776701909806947310e-01 5.143100217468087321e-01 0.000000000000000000e+00
Cu 2.759231347222028119e-01 6.025952396428089219e-01 0.000000000000000000e+00
Cu 2.741552353945043707e-01 6.914941592313023078e-01 0.000000000000000000e+00
Cu 2.731831782185686341e-01 7.809210673650225365e-01 0.000000000000000000e+00
Cu 2.734949336434450151e-01 8.707150380059277550e-01 0.000000000000000000e+00
Cu 4.234016199292865990e-01 7.764967234050461353e-02 0.000000000000000000e+00
Cu 4.221571928468211832e-01 1.652399019190623486e-01 0.000000000000000000e+00
Cu 4.212656329648754583e-01 2.528953543397242654e-01 0.000000000000000000e+00
Cu 4.205131899966736420e-01 3.405905234398935999e-01 0.000000000000000000e+00
Cu 4.194433452884288038e-01 4.281348645241737083e-01 0.000000000000000000e+00
Cu 4.176037881526798445e-01 5.153899842040872148e-01 0.000000000000000000e+00
Cu 4.149159117323501511e-01 6.025895957650460044e-01 0.000000000000000000e+00
Cu 4.119317334985162504e-01 6.903111004659888694e-01 0.000000000000000000e+00
Cu 4.096205531664381394e-01 7.791581119042804149e-01 0.000000000000000000e+00
Cu 4.087968273697110688e-01 8.691930594366725771e-01 0.000000000000000000e+00
Cu 5.639450718309974020e-01 8.002934320866868234e-02 0.000000000000000000e+00
Cu 5.629130994528469545e-01 1.677212982748673142e-01 0.000000000000000000e+00
Cu 5.621657096454978353e-01 2.554729748387060684e-01 0.000000000000000000e+00
Cu 5.614918664171183460e-01 3.432228651289369603e-01 0.000000000000000000e+00
Cu 5.605584561194076887e-01 4.307674573207972424e-01 0.000000000000000000e+00
Cu 5.586293955906465047e-01 5.176477005944674081e-01 0.000000000000000000e+00
Cu 5.551120483329381461e-01 6.037903354487788032e-01 0.000000000000000000e+00
Cu 5.502110303737930419e-01 6.900677960777885644e-01 0.000000000000000000e+00
Cu 5.453514275641968556e-01 7.780697150467424938e-01 0.000000000000000000e+00
Cu 5.424717299294583572e-01 8.685956588823610103e-01 0.000000000000000000e+00
Cu 7.043320784172394378e-01 8.204162578818176288e-02 0.000000000000000000e+00
Cu 7.035301364125142731e-01 1.698466000168012691e-01 0.000000000000000000e+00
Cu 7.029824773643749136e-01 2.577901943449845135e-01 0.000000000000000000e+00
Cu 7.025565595104678041e-01 3.458616137626703280e-01 0.000000000000000000e+00
Cu 7.019355991523608118e-01 4.338912834843947075e-01 0.000000000000000000e+00
Cu 7.007884876793858409e-01 5.214663334675734285e-01 0.000000000000000000e+00
Cu 6.970358156494291801e-01 6.072404154065248472e-01 0.000000000000000000e+00
Cu 6.898630072275253600e-01 6.918549111399953100e-01 0.000000000000000000e+00
Cu 6.803745195870559703e-01 7.781927420816733276e-01 0.000000000000000000e+00
Cu 6.727169497495220085e-01 8.695635445456486590e-01 0.000000000000000000e+00
Cu 8.446159339716202696e-01 8.361665740559391657e-02 0.000000000000000000e+00
Cu 8.440499211309500094e-01 1.714976612529322819e-01 0.000000000000000000e+00
Cu 8.436994851591737010e-01 2.596158307036497415e-01 0.000000000000000000e+00
Cu 8.434708760591475007e-01 3.480500261409283924e-01 0.000000000000000000e+00
Cu 8.433164887093398399e-01 4.368312433322895094e-01 0.000000000000000000e+00
Cu 8.426411145091086130e-01 5.257880141495254733e-01 0.000000000000000000e+00
Cu 8.417941052746330532e-01 6.144312899462132105e-01 0.000000000000000000e+00
Cu 8.321112090420158536e-01 6.976686989733205113e-01 0.000000000000000000e+00
Cu 8.154162182826630856e-01 7.823398252636448724e-01 0.000000000000000000e+00
Cu 7.949464435541883089e-01 8.754461516164198098e-01 0.000000000000000000e+00
Cu 9.848921118908339212e-01 8.468626860476979878e-02 0.000000000000000000e+00
Cu 9.845623728534714791e-01 1.725696846044632859e-01 0.000000000000000000e+00
Cu 9.843578225661255843e-01 2.607496572133677359e-01 0.000000000000000000e+00
Cu 9.842915511046267385e-01 3.493769526190246832e-01 0.000000000000000000e+00
Cu 9.842534925352696140e-01 4.386334303158039849e-01 0.000000000000000000e+00
Cu 9.845217662899998778e-01 5.288248655198798387e-01 0.000000000000000000e+00
Cu 9.833850995644580761e-01 6.204124562045758573e-01 0.000000000000000000e+00
Cu 9.861368289223543249e-01 7.148736452906122585e-01 0.000000000000000000e+00
Cu 9.428151086166476347e-01 7.965601142860785355e-01 0.000000000000000000e+00
Cu 9.020925639482180181e-01 8.972605217417009005e-01 0.000000000000000000e+00
Cu 1.125291600651328494e+00 8.522637295500729016e-02 0.000000000000000000e+00
Cu 1.125184388138083635e+00 1.730191210598828744e-01 0.000000000000000000e+00
Cu 1.125120422282980703e+00 2.610971580666379133e-01 0.000000000000000000e+00
Cu 1.125123010536592139e+00 3.496017951759398112e-01 0.000000000000000000e+00
Cu 1.125323758737382773e+00 4.387135745254986396e-01 0.000000000000000000e+00
Cu 1.125439978992086143e+00 5.287445811530242512e-01 0.000000000000000000e+00
Cu 1.127165575384968754e+00 6.201569670034853266e-01 0.000000000000000000e+00
Cu 1.125107882703948015e+00 7.144770983087669336e-01 0.000000000000000000e+00
Cu 1.169110112453180195e+00 7.955112822004185569e-01 0.000000000000000000e+00
Cu 1.210455374457394262e+00 8.956479496104290394e-01 0.000000000000000000e+00
Cu 1.265946272155997310e+00 8.527115443781155268e-02 0.000000000000000000e+00
Cu 1.266053548701187692e+00 1.728846727696099483e-01 0.000000000000000000e+00
Cu 1.266138907291114890e+00 2.606966996532079639e-01 0.000000000000000000e+00
Cu 1.266325512356733851e+00 3.487557350068055118e-01 0.000000000000000000e+00
Cu 1.266667661165405301e+00 4.370883959825258014e-01 0.000000000000000000e+00
Cu 1.267755447583768458e+00 5.255445031319672111e-01 0.000000000000000000e+00
Cu 1.269171673621673824e+00 6.136809410378981644e-01 0.000000000000000000e+00
Cu 1.279558283003362273e+00 6.963563732374035142e-01 0.000000000000000000e+00
Cu 1.296952833832143881e+00 7.804314439541720771e-01 0.000000000000000000e+00
Cu 1.318086849007003458e+00 8.729303779299492083e-01 0.000000000000000000e+00
Cu 1.406961766831847482e+00 8.491295117739246223e-02 0.000000000000000000e+00
Cu 1.407266564553383725e+00 1.722875559018680058e-01 0.000000000000000000e+00
Cu 1.407568677248630662e+00 2.597205814696841308e-01 0.000000000000000000e+00
Cu 1.408010133914763706e+00 3.471416442534043800e-01 0.000000000000000000e+00
Cu 1.408888072482939124e+00 4.343745666887745549e-01 0.000000000000000000e+00
Cu 1.410479611738394423e+00 5.210638146438335561e-01 0.000000000000000000e+00
Cu 1.414832294904496468e+00 6.059357947576101688e-01 0.000000000000000000e+00
Cu 1.422711687833205341e+00 6.896833810646917362e-01 0.000000000000000000e+00
Cu 1.432992606541092062e+00 7.752017986373753722e-01 0.000000000000000000e+00
Cu 1.441465580848321215e+00 8.657681297583097457e-01 0.000000000000000000e+00
Cu 1.548379842209058221e+00 8.428882241162537203e-02 0.000000000000000000e+00
Cu 1.548869305837678789e+00 1.714116296014225882e-01 0.000000000000000000e+00
Cu 1.549433090210255548e+00 2.584450304369261819e-01 0.000000000000000000e+00
Cu 1.550259356747315520e+00 3.452246630633930558e-01 0.000000000000000000e+00
Cu 1.551586086585393209e+00 4.315467764625758318e-01 0.000000000000000000e+00
Cu 1.554042217307084472e+00 5.170550485371108174e-01 0.000000000000000000e+00
Cu 1.558173820724522152e+00 6.018220860630433267e-01 0.000000000000000000e+00
Cu 1.563810208692936632e+00 6.868339988842985244e-01 0.000000000000000000e+00
Cu 1.569551072339561371e+00 7.737122000702630897e-01 0.000000000000000000e+00
Cu 1.573426187714942470e+00 8.631998132886984365e-01 0.000000000000000000e+00
Cu 1.690166397862371994e+00 8.354795141838461392e-02 0.000000000000000000e+00
Cu 1.690825558925444838e+00 1.704603984458192278e-01 0.000000000000000000e+00
Cu 1.691694480018565594e+00 2.571621934109439289e-01 0.000000000000000000e+00
Cu 1.692889381305757501e+00 3.434721967386830110e-01 0.000000000000000000e+00
Cu 1.694618419119289676e+00 4.292543401039591866e-01 0.000000000000000000e+00
Cu 1.697116310218991009e+00 5.145502335218129497e-01 0.000000000000000000e+00
Cu 1.700415093060879457e+00 5.997755885035881418e-01 0.000000000000000000e+00
Cu 1.704083678183483386e+00 6.857151908292734577e-01 0.000000000000000000e+00
Cu 1.707312592598964507e+00 7.730789942751818966e-01 0.000000000000000000e+00
Cu 1.709301085908463858e+00 8.618372713632383997e-01 0.000000000000000000e+00
Cu 1.832205968883830804e+00 8.280392522419496859e-02 0.000000000000000000e+00
Cu 1.833045708480183222e+00 1.695905423851374605e-01 0.000000000000000000e+00
Cu 1.834242996878832965e+00 2.560868803716806474e-01 0.000000000000000000e+00
Cu 1.835786680656664061e+00 3.421382260954353161e-01 0.000000000000000000e+00
Cu 1.837676704064668209e+00 4.277537484972610549e-01 0.000000000000000000e+00
Cu 1.839877400808390462e+00 5.131605221891057944e-01 0.000000000000000000e+00
Cu 1.842233743035466276e+00 5.988062091027519518e-01 0.000000000000000000e+00
Cu 1.844448208483025820e+00 6.852038051537585606e-01 0.000000000000000000e+00
Cu 1.846185588508054476e+00 7.726351115308798256e-01 0.000000000000000000e+00
Cu 1.847211363369878567e+00 8.609086382008237504e-01 0.000000000000000000e+00
Cu 1.974318184369278972e+00 8.207951284492238930e-02 0.000000000000000000e+00
Cu 1.975402917922292501e+00 1.688513073308383905e-01 0.000000000000000000e+00
Cu 1.976995518849877786e+00 2.552716612761954940e-01 0.000000000000000000e+00
Cu 1.978879327609794458e+00 3.412433873889847424e-01 0.000000000000000000e+00
Cu 1.980834948958131170e+00 4.268802192092544523e-01 0.000000000000000000e+00
Cu 1.982652703399986338e+00 5.124626963802021429e-01 0.000000000000000000e+00
Cu 1.984158630256658729e+00 5.983641202766748490e-01 0.000000000000000000e+00
Cu 1.985249421825102889e+00 6.849246442330598761e-01 0.000000000000000000e+00
Cu 1.985921295077408777e+00 7.722838644723591939e-01 0.000000000000000000e+00
Cu 1.986270286366230708e+00 8.602523197175172553e-01 0.000000000000000000e+00
Cu 2.116264862871585439e+00 8.125930327382457907e-02 0.000000000000000000e+00
Cu 2.117767663771992215e+00 1.681379684485543313e-01 0.000000000000000000e+00
Cu 2.119917736494304261e+00 2.545797125347535883e-01 0.000000000000000000e+00
Cu 2.122225813974780273e+00 3.405795367889613012e-01 0.000000000000000000e+00
Cu 2.124267688527128772e+00 4.263618792826938120e-01 0.000000000000000000e+00
Cu 2.125745124075743675e+00 5.121844140792192190e-01 0.000000000000000000e+00
Cu 2.126511801833902204e+00 5.982717503362812161e-01 0.000000000000000000e+00
Cu 2.126608856112091495e+00 6.848604592065613561e-01 0.000000000000000000e+00
Cu 2.126286302197143652e+00 7.721179698283363591e-01 0.000000000000000000e+00
Cu 2.125940336681521714e+00 8.599361112828247666e-01 0.000000000000000000e+00
Cu 2.257727228388497487e+00 8.003862224213302567e-02 0.000000000000000000e+00
Cu 2.260027531048021121e+00 1.671552275021754297e-01 0.000000000000000000e+00
Cu 2.263072644868343808e+00 2.536529486694942270e-01 0.000000000000000000e+00
Cu 2.265955283448985558e+00 3.397658451013587655e-01 0.000000000000000000e+00
Cu 2.268096726598253010e+00 4.259064051043002230e-01 0.000000000000000000e+00
Cu 2.269317296231329273e+00 5.122139564027397007e-01 0.000000000000000000e+00
Cu 2.269500168798765483e+00 5.986228986136491459e-01 0.000000000000000000e+00
Cu 2.268613751904879017e+00 6.852330612522181674e-01 0.000000000000000000e+00
Cu 2.267090756524190898e+00 7.723827135143064293e-01 0.000000000000000000e+00
Cu 2.265756499232575827e+00 8.602083467181649290e-01 0.000000000000000000e+00
Cu 2.398174193800936216e+00 7.780374520884546230e-02 0.000000000000000000e+00
Cu 2.402146592525556734e+00 1.653159337825526876e-01 0.000000000000000000e+00
Cu 2.406694423868351862e+00 2.518228243838195324e-01 0.000000000000000000e+00
Cu 2.410170960982420674e+00 3.383159776800258589e-01 0.000000000000000000e+00
Cu 2.412272218954112812e+00 4.252920551476055966e-01 0.000000000000000000e+00
Cu 2.413322362990440340e+00 5.124786110960517505e-01 0.000000000000000000e+00
Cu 2.413220837983657496e+00 5.996765695490837711e-01 0.000000000000000000e+00
Cu 2.411469098143562473e+00 6.865748046686940276e-01 0.000000000000000000e+00
Cu 2.408232825422147450e+00 7.735879512282552994e-01 0.000000000000000000e+00
Cu 2.405095042834764385e+00 8.616149010337038616e-01 0.000000000000000000e+00
Cu 2.536349087779676825e+00 7.313458685354902455e-02 0.000000000000000000e+00
Cu 2.544489664651792715e+00 1.612317860959039395e-01 0.000000000000000000e+00
Cu 2.551215900303125839e+00 2.480539530049618302e-01 0.000000000000000000e+00
Cu 2.554559853669916336e+00 3.361012015679564757e-01 0.000000000000000000e+00
Cu 2.556677762129782039e+00 4.244055861390209072e-01 0.000000000000000000e+00
Cu 2.557626830149561048e+00 5.128553225496635948e-01 0.000000000000000000e+00
Cu 2.557324910189449962e+00 6.013711073609664393e-01 0.000000000000000000e+00
Cu 2.555546670201834569e+00 6.897823749913680746e-01 0.000000000000000000e+00
Cu 2.550021904988069021e+00 7.770521794052908104e-01 0.000000000000000000e+00
Cu 2.542626877558141540e+00 8.655288592445758988e-01 0.000000000000000000e+00
Cu 2.667335275519048032e+00 5.900998748308523140e-02 0.000000000000000000e+00
Cu 2.689397174319879902e+00 1.515137724333119884e-01 0.000000000000000000e+00
Cu 2.695249845316779691e+00 2.431760693334069079e-01 0.000000000000000000e+00
Cu 2.699138357977686198e+00 3.335268703510405053e-01 0.000000000000000000e+00
Cu 2.701199172846361130e+00 4.233182852858258238e-01 0.000000000000000000e+00
Cu 2.702097857384294866e+00 5.130662301813028181e-01 0.000000000000000000e+00
Cu 2.701758653282686495e+00 6.031090436876510585e-01 0.000000000000000000e+00
Cu 2.699388446490928128e+00 6.939059975809285241e-01 0.000000000000000000e+00
Cu 2.694701786106984631e+00 7.860693109870035000e-01 0.000000000000000000e+00
Cu 2.673424052128635875e+00 8.790450120359857289e-01 0.000000000000000000e+00
