200

Cu 0.000000000000000000e+00 4.110030666571832213e-03 0.000000000000000000e+00
Cu 0.000000000000000000e+00 1.085068935278726138e-01 0.000000000000000000e+00
Cu 0.000000000000000000e+00 2.130128989992537691e-01 0.000000000000000000e+00
Cu 0.000000000000000000e+00 3.177131639295905363e-01 0.000000000000000000e+00
Cu 0.000000000000000000e+00 4.226349632601998918e-01 0.000000000000000000e+00
Cu 0.000000000000000000e+00 5.277751616100538889e-01 0.000000000000000000e+00
Cu 0.000000000000000000e+00 6.331246323642267804e-01 0.000000000000000000e+00
Cu 0.000000000000000000e+00 7.386759098549021685e-01 0.000000000000000000e+00
Cu 0.000000000000000000e+00 8.444139993939894229e-01 0.000000000000000000e+00
Cu 0.000000000000000000e+00 9.502952351893045879e-01 0.000000000000000000e+00
Cu 1.083399577673656855e-01 5.027597778838179682e-03 0.000000000000000000e+00
Cu 1.075521041455683863e-01 1.089705365922008229e-01 0.000000000000000000e+00
Cu 1.069698123755454255e-01 2.133651422399490405e-01 0.000000000000000000e+00
Cu 1.064101560637284866e-01 3.180493341998429924e-01 0.000000000000000000e+00
Cu 1.058623775319133126e-01 4.229813571986387744e-01 0.000000000000000000e+00
Cu 1.053209561002267508e-01 5.281406517370124121e-01 0.000000000000000000e+00
Cu 1.047771855341762259e-01 6.335109871117732272e-01 0.000000000000000000e+00
Cu 1.042158531244664621e-01 7.390888462932798664e-01 0.000000000000000000e+00
Cu 1.036092786460863224e-01 8.449119907631480464e-01 0.000000000000000000e+00
Cu 1.027760327699296650e-01 9.511582603280520631e-01 0.000000000000000000e+00
Cu 2.165684429786462750e-01 6.208259015463500098e-03 0.000000000000000000e+00
Cu 2.152104203057804421e-01 1.101716265346981416e-01 0.000000000000000000e+00
Cu 2.139535415393042650e-01 2.144793370521773934e-01 0.000000000000000000e+00
Cu 2.127941805702716349e-01 3.191420273524634421e-01 0.000000000000000000e+00
Cu 2.116821710764496267e-01 4.240951224473965553e-01 0.000000000000000000e+00
Cu 2.105982635635702538e-01 5.292957376654605639e-01 0.000000000000000000e+00
Cu 2.095180434166612482e-01 6.347156851686455159e-01 0.000000000000000000e+00
Cu 2.083973605569532372e-01 7.403510188444240026e-01 0.000000000000000000e+00
Cu 2.071466891273062993e-01 8.462462057573189034e-01 0.000000000000000000e+00
Cu 2.057077604953340411e-01 9.524226941008842040e-01 0.000000000000000000e+00
Cu 3.246912401299969497e-01 7.951759027803857391e-03 0.000000000000000000e+00
Cu 3.227575054330833471e-01 1.119513127588312035e-01 0.000000000000000000e+00
Cu 3.208887115784394006e-01 2.162848162277312691e-01 0.000000000000000000e+00
Cu 3.191110866284618264e-01 3.209568140896751909e-01 0.000000000000000000e+00
Cu 3.174215590870931303e-01 4.259433102647885994e-01 0.000000000000000000e+00
Cu 3.157978135564126765e-01 5.311975482659949677e-01 0.000000000000000000e+00
Cu 3.142044821367354634e-01 6.366789809677635414e-01 0.000000000000000000e+00
Cu 3.125738541719834118e-01 7.423618226926091967e-01 0.000000000000000000e+00
Cu 3.108202588052140225e-01 8.482316228680611969e-01 0.000000000000000000e+00
Cu 3.088621302842047278e-01 9.543061527172473912e-01 0.000000000000000000e+00
Cu 4.326916333387240132e-01 1.028285035856786427e-02 0.000000000000000000e+00
Cu 4.301615161421779576e-01 1.143287798344093248e-01 0.000000000000000000e+00
Cu 4.276855569015852732e-01 2.187144153347302666e-01 0.000000000000000000e+00
Cu 4.253058286995141102e-01 3.234372468661168010e-01 0.000000000000000000e+00
Cu 4.230436072155737137e-01 4.284702148031896973e-01 0.000000000000000000e+00
Cu 4.208975074007446082e-01 5.337717020439363136e-01 0.000000000000000000e+00
Cu 4.188394537569821163e-01 6.392931205234823056e-01 0.000000000000000000e+00
Cu 4.168043914079959666e-01 7.449830496733582663e-01 0.000000000000000000e+00
Cu 4.146822268200772710e-01 8.507957180994932811e-01 0.000000000000000000e+00
Cu 4.123343815806273516e-01 9.567257761462069077e-01 0.000000000000000000e+00
Cu 5.405578301591944523e-01 1.321479746157381251e-02 0.000000000000000000e+00
Cu 5.374021248874271128e-01 1.173023024238820516e-01 0.000000000000000000e+00
Cu 5.343006841879642810e-01 2.217442168932703961e-01 0.000000000000000000e+00
Cu 5.313256900083598300e-01 3.265288597288310557e-01 0.000000000000000000e+00
Cu 5.285198250668112774e-01 4.316099118580486449e-01 0.000000000000000000e+00
Cu 5.258963957034705761e-01 5.369252807028865870e-01 0.000000000000000000e+00
Cu 5.234461495922656527e-01 6.424242438802555411e-01 0.000000000000000000e+00
Cu 5.211157507558724644e-01 7.480591047397421312e-01 0.000000000000000000e+00
Cu 5.187788604897077827e-01 8.537802693182489078e-01 0.000000000000000000e+00
Cu 5.162308424117011407e-01 9.595312260484322175e-01 0.000000000000000000e+00
Cu 6.482953065022417638e-01 1.677410700100266314e-02 0.000000000000000000e+00
Cu 6.444692376615341889e-01 1.208836288378722368e-01 0.000000000000000000e+00
Cu 6.407055497689397860e-01 2.253586040040724825e-01 0.000000000000000000e+00
Cu 6.371339103996891406e-01 3.301893403669262650e-01 0.000000000000000000e+00
Cu 6.338309765492171621e-01 4.352951297036177780e-01 0.000000000000000000e+00
Cu 6.308240271219730522e-01 5.405710208772203096e-01 0.000000000000000000e+00
Cu 6.280825247486406804e-01 6.459287446967447721e-01 0.000000000000000000e+00
Cu 6.255547806550779688e-01 7.513876592664390230e-01 0.000000000000000000e+00
Cu 6.231392628887438834e-01 8.569341978255593517e-01 0.000000000000000000e+00
Cu 6.206451980134840563e-01 9.624899744458665918e-01 0.000000000000000000e+00
Cu 7.559127369491061010e-01 2.101722368526654644e-02 0.000000000000000000e+00
Cu 7.513709536046861981e-01 1.251212589273969777e-01 0.000000000000000000e+00
Cu 7.468939437069590515e-01 2.295693687461466126e-01 0.000000000000000000e+00
Cu 7.426980410720610548e-01 3.343784231902832138e-01 0.000000000000000000e+00
Cu 7.389667105701001049e-01 4.394605842182819355e-01 0.000000000000000000e+00
Cu 7.357286348340517090e-01 5.445970697763650170e-01 0.000000000000000000e+00
Cu 7.328971879169791093e-01 6.496903015193086217e-01 0.000000000000000000e+00
Cu 7.302170274674102401e-01 7.547401221026546203e-01 0.000000000000000000e+00
Cu 7.278061050336931403e-01 8.599743247228525123e-01 0.000000000000000000e+00
Cu 7.256488026223560928e-01 9.651212633329184776e-01 0.000000000000000000e+00
Cu 8.633935373348429199e-01 2.600076598845896259e-02 0.000000000000000000e+00
Cu 8.581134365903080319e-01 1.301075728620632033e-01 0.000000000000000000e+00
Cu 8.529048116726740680e-01 2.344663988019013989e-01 0.000000000000000000e+00
Cu 8.480209592838477972e-01 3.390948975762232975e-01 0.000000000000000000e+00
Cu 8.438893849412606452e-01 4.439911219102607443e-01 0.000000000000000000e+00
Cu 8.407640922657012572e-01 5.488500561549407575e-01 0.000000000000000000e+00
Cu 8.380113580573661514e-01 6.534220328250190946e-01 0.000000000000000000e+00
Cu 8.352483418259950554e-01 7.583025706776284069e-01 0.000000000000000000e+00
Cu 2.536175561428651637e+00 6.949627073858367643e-01 0.000000000000000000e+00
Cu 2.515543650122586072e+00 7.977010135043675065e-01 0.000000000000000000e+00
Cu 9.707007156967664141e-01 3.179778462794407429e-02 0.000000000000000000e+00
Cu 9.646290177892979933e-01 1.359033450698707568e-01 0.000000000000000000e+00
Cu 9.587661653310615151e-01 2.402649474887452175e-01 0.000000000000000000e+00
Cu 9.532354520887836857e-01 3.445451974347393254e-01 0.000000000000000000e+00
Cu 9.486426047429116215e-01 4.487736886606208397e-01 0.000000000000000000e+00
Cu 9.463183527197674971e-01 5.525697320308468052e-01 0.000000000000000000e+00
Cu 9.434514016939971048e-01 6.571326637309969909e-01 0.000000000000000000e+00
Cu 2.666199874989408247e+00 6.150291933039393477e-01 0.000000000000000000e+00
Cu 2.643918758688142301e+00 7.161853330859626610e-01 0.000000000000000000e+00
Cu 2.625456653627359582e+00 8.161493059271350825e-01 0.000000000000000000e+00
Cu 1.077742603180382952e+00 3.844776634072648996e-02 0.000000000000000000e+00
Cu 1.070857000379131341e+00 1.426437430801692219e-01 0.000000000000000000e+00
Cu 1.064193615371854529e+00 2.469427048089429255e-01 0.000000000000000000e+00
Cu 1.058362630546046956e+00 3.515522787104703450e-01 0.000000000000000000e+00
Cu 2.848135937492117797e+00 3.340996963892683413e-01 0.000000000000000000e+00
Cu 2.816471268273077477e+00 4.336047329488253999e-01 0.000000000000000000e+00
Cu 2.798783162339198327e+00 5.361310642660664927e-01 0.000000000000000000e+00
Cu 2.775730548847763934e+00 6.359809144300043737e-01 0.000000000000000000e+00
Cu 2.756927390956827928e+00 7.347782237329276711e-01 0.000000000000000000e+00
Cu 2.741240249552955532e+00 8.325999402672883409e-01 0.000000000000000000e+00
Cu 1.184456750076319231e+00 4.613469021206258874e-02 0.000000000000000000e+00
Cu 1.176539640476057746e+00 1.503270323571605227e-01 0.000000000000000000e+00
Cu 1.169296785439011055e+00 2.549517768282859032e-01 0.000000000000000000e+00
Cu 2.982284172964690505e+00 2.602285769401036508e-01 0.000000000000000000e+00
Cu 2.953934402638893175e+00 3.601665538853686122e-01 0.000000000000000000e+00
Cu 2.933494476342573876e+00 4.588311120469659166e-01 0.000000000000000000e+00
Cu 2.909449090160815210e+00 5.555713737904295346e-01 0.000000000000000000e+00
Cu 2.891155961772133409e+00 6.538380057251635957e-01 0.000000000000000000e+00
Cu 2.875052439902467061e+00 7.504686977006564952e-01 0.000000000000000000e+00
Cu 2.862008471536052756e+00 8.462809592298033978e-01 0.000000000000000000e+00
Cu 1.290607210410754657e+00 5.483329657112948757e-02 0.000000000000000000e+00
Cu 1.281748778627532781e+00 1.593825730413108710e-01 0.000000000000000000e+00
Cu 3.119610537574836417e+00 1.882301711337324157e-01 0.000000000000000000e+00
Cu 3.091057178791522642e+00 2.863286205924299166e-01 0.000000000000000000e+00
Cu 3.067840722147913368e+00 3.828653579952397412e-01 0.000000000000000000e+00
Cu 3.047273532138456975e+00 4.789613578192551957e-01 0.000000000000000000e+00
Cu 3.028275011021521745e+00 5.744591180667617536e-01 0.000000000000000000e+00
Cu 3.011604341425921927e+00 6.688842958964327234e-01 0.000000000000000000e+00
Cu 2.997980416569856477e+00 7.633889009653068713e-01 0.000000000000000000e+00
Cu 2.987051301768263389e+00 8.573333374360165848e-01 0.000000000000000000e+00
Cu 1.396194712560651752e+00 6.528315001694873221e-02 0.000000000000000000e+00
Cu 3.257113243928650537e+00 1.177565719090329643e-01 0.000000000000000000e+00
Cu 3.229940696338787109e+00 2.148837748685461790e-01 0.000000000000000000e+00
Cu 3.207051473837382538e+00 3.098122595973636373e-01 0.000000000000000000e+00
Cu 3.186842216177607767e+00 4.033864243972867802e-01 0.000000000000000000e+00
Cu 3.168562485674101481e+00 4.964803346550923369e-01 0.000000000000000000e+00
Cu 3.152011726124110957e+00 5.892150589466812471e-01 0.000000000000000000e+00
Cu 3.137392174611078222e+00 6.816348231292799209e-01 0.000000000000000000e+00
Cu 3.125170333958259050e+00 7.739133170275083184e-01 0.000000000000000000e+00
Cu 3.115855285410807696e+00 8.661396915084464965e-01 0.000000000000000000e+00
Cu 3.391568743473361458e+00 4.646844226587228122e-02 0.000000000000000000e+00
Cu 3.368635032427036435e+00 1.435992104133349545e-01 0.000000000000000000e+00
Cu 3.347987667298160552e+00 2.375283822429957170e-01 0.000000000000000000e+00
Cu 3.329311414034836769e+00 3.295876915484997616e-01 0.000000000000000000e+00
Cu 3.312031976206309736e+00 4.206317640278851022e-01 0.000000000000000000e+00
Cu 3.295844567992808116e+00 5.111674774624275219e-01 0.000000000000000000e+00
Cu 3.280869296411179192e+00 6.015438070484195876e-01 0.000000000000000000e+00
Cu 3.267483253993980874e+00 6.919510836182664049e-01 0.000000000000000000e+00
Cu 3.256276835319470209e+00 7.825036144342341071e-01 0.000000000000000000e+00
Cu 3.247936336298948401e+00 8.731800023626721252e-01 0.000000000000000000e+00
Cu 3.503855011001424824e+00 6.806988834434868352e-02 0.000000000000000000e+00
Cu 3.488150688730117910e+00 1.633372376930052328e-01 0.000000000000000000e+00
Cu 3.472694737231950324e+00 2.553792291241546164e-01 0.000000000000000000e+00
Cu 3.457677941066616967e+00 3.454765448574283471e-01 0.000000000000000000e+00
Cu 3.442901296326301708e+00 4.346072094489986104e-01 0.000000000000000000e+00
Cu 3.428373730730792879e+00 5.233262806358013330e-01 0.000000000000000000e+00
Cu 3.414410178648780825e+00 6.119090588571375333e-01 0.000000000000000000e+00
Cu 3.401602045774019256e+00 7.006008232062224117e-01 0.000000000000000000e+00
Cu 3.390764401228690605e+00 7.896307741219982246e-01 0.000000000000000000e+00
Cu 3.382854360557765006e+00 8.790225692462299012e-01 0.000000000000000000e+00
Cu 3.624711400400972394e+00 8.529235150231971596e-02 0.000000000000000000e+00
Cu 3.614298275675824623e+00 1.783564359076353356e-01 0.000000000000000000e+00
Cu 3.603459056891697099e+00 2.688549351533676135e-01 0.000000000000000000e+00
Cu 3.591664240734913971e+00 3.576236712221543823e-01 0.000000000000000000e+00
Cu 3.578874930064778859e+00 4.456996470707353941e-01 0.000000000000000000e+00
Cu 3.565562886725818004e+00 5.335033532343684826e-01 0.000000000000000000e+00
Cu 3.552244153178090613e+00 6.210089983660537216e-01 0.000000000000000000e+00
Cu 3.539480325731861221e+00 7.083593599397004503e-01 0.000000000000000000e+00
Cu 3.528282803550681024e+00 7.960413067498588457e-01 0.000000000000000000e+00
Cu 3.520068847213786434e+00 8.843663253483443620e-01 0.000000000000000000e+00
Cu 3.752283405636527736e+00 9.829815130810597157e-02 0.000000000000000000e+00
Cu 3.746818771686357241e+00 1.893931952508841887e-01 0.000000000000000000e+00
Cu 3.740207737146430400e+00 2.783300356093872385e-01 0.000000000000000000e+00
Cu 3.730879941809766009e+00 3.664702787149763386e-01 0.000000000000000000e+00
Cu 3.719319961571158739e+00 4.545492050984464849e-01 0.000000000000000000e+00
Cu 3.706816141346001015e+00 5.423714778874997311e-01 0.000000000000000000e+00
Cu 3.694053938426770767e+00 6.297534319860057517e-01 0.000000000000000000e+00
Cu 3.681053351896508730e+00 7.163186148966549371e-01 0.000000000000000000e+00
Cu 3.668572929397889926e+00 8.027273789079047983e-01 0.000000000000000000e+00
Cu 3.658841896667507143e+00 8.902252734633107067e-01 0.000000000000000000e+00
Cu 3.884469704972967286e+00 1.056711209045621130e-01 0.000000000000000000e+00
Cu 3.885890893137057933e+00 1.953769654699009095e-01 0.000000000000000000e+00
Cu 3.883173527190041163e+00 2.836469119528576832e-01 0.000000000000000000e+00
Cu 3.874544258456872559e+00 3.729659675297125609e-01 0.000000000000000000e+00
Cu 3.863696506875056613e+00 4.620608666779270068e-01 0.000000000000000000e+00
Cu 3.851673141426308788e+00 5.506500633386247623e-01 0.000000000000000000e+00
Cu 3.839162265255207540e+00 6.386584815192615228e-01 0.000000000000000000e+00
Cu 3.826626238756471121e+00 7.260434084130480414e-01 0.000000000000000000e+00
Cu 3.811781438402944033e+00 8.114769754055077833e-01 0.000000000000000000e+00
Cu 3.797575942314809883e+00 8.983947059574913796e-01 0.000000000000000000e+00
Cu 4.015450895051113633e+00 9.857081014308323452e-02 0.000000000000000000e+00
Cu 4.034050402576765393e+00 1.928783627935950207e-01 0.000000000000000000e+00
Cu 4.030136250632751604e+00 2.866886981284186287e-01 0.000000000000000000e+00
Cu 4.022265020936219848e+00 3.787898972628549465e-01 0.000000000000000000e+00
Cu 4.011610845606638165e+00 4.693710189582060988e-01 0.000000000000000000e+00
Cu 3.999817073594393424e+00 5.589026103151019109e-01 0.000000000000000000e+00
Cu 3.987553709570947014e+00 6.478044981580299844e-01 0.000000000000000000e+00
Cu 3.974418933099992390e+00 7.367156157649029646e-01 0.000000000000000000e+00
Cu 3.960804730253828509e+00 8.268045083589722344e-01 0.000000000000000000e+00
Cu 3.929766044633384414e+00 9.164386104778619035e-01 0.000000000000000000e+00
