200

Cu 0.000000000000000000e+00 5.515049206185760472e-02 0.000000000000000000e+00
Cu 0.000000000000000000e+00 1.497880490732686753e-01 0.000000000000000000e+00
Cu 0.000000000000000000e+00 2.428529114292401203e-01 0.000000000000000000e+00
Cu 0.000000000000000000e+00 3.352112502644872816e-01 0.000000000000000000e+00
Cu 0.000000000000000000e+00 4.273220769440102540e-01 0.000000000000000000e+00
Cu 0.000000000000000000e+00 5.194223701526359260e-01 0.000000000000000000e+00
Cu 0.000000000000000000e+00 6.117055804519387907e-01 0.000000000000000000e+00
Cu 0.000000000000000000e+00 7.043848468293922860e-01 0.000000000000000000e+00
Cu 0.000000000000000000e+00 7.978705648525165062e-01 0.000000000000000000e+00
Cu 0.000000000000000000e+00 8.929485570248956172e-01 0.000000000000000000e+00
Cu 1.351998848899168271e-01 6.082874609434365393e-02 0.000000000000000000e+00
Cu 1.337817973145527251e-01 1.517516231728184839e-01 0.000000000000000000e+00
Cu 1.337505018750323182e-01 2.436756031720597737e-01 0.000000000000000000e+00
Cu 1.336901416834414547e-01 3.356057779105972583e-01 0.000000000000000000e+00
Cu 1.335798663675740461e-01 4.274581017224785007e-01 0.000000000000000000e+00
Cu 1.334027968668318742e-01 5.193432986356518732e-01 0.000000000000000000e+00
Cu 1.331738517981331527e-01 6.113777881098765299e-01 0.000000000000000000e+00
Cu 1.329333646303633154e-01 7.036504052010167376e-01 0.000000000000000000e+00
Cu 1.327181214558763589e-01 7.960477516962894962e-01 0.000000000000000000e+00
Cu 1.339120289151473353e-01 8.875638700084639288e-01 0.000000000000000000e+00
Cu 2.697387119357590457e-01 6.348861298138543108e-02 0.000000000000000000e+00
Cu 2.685824497009728917e-01 1.541276284555325726e-01 0.000000000000000000e+00
Cu 2.679608308424007990e-01 2.450915559118860554e-01 0.000000000000000000e+00
Cu 2.677103864982195436e-01 3.364135201037151135e-01 0.000000000000000000e+00
Cu 2.674286291237704116e-01 4.278346424253864910e-01 0.000000000000000000e+00
Cu 2.670649927775557986e-01 5.193276483955513445e-01 0.000000000000000000e+00
Cu 2.666553007797128894e-01 6.109262419390041332e-01 0.000000000000000000e+00
Cu 2.662974022850774225e-01 7.025869426503057458e-01 0.000000000000000000e+00
Cu 2.663963322420065394e-01 7.940486700870382775e-01 0.000000000000000000e+00
Cu 2.671236110657400076e-01 8.853266883966622869e-01 0.000000000000000000e+00
Cu 4.041782577107020380e-01 6.531820615641539818e-02 0.000000000000000000e+00
Cu 4.032561409066369729e-01 1.559071829041568658e-01 0.000000000000000000e+00
Cu 4.025761222670247719e-01 2.466067797638442638e-01 0.000000000000000000e+00
Cu 4.021173452749398081e-01 3.374770669796655076e-01 0.000000000000000000e+00
Cu 4.016791073872623685e-01 4.284414699242439784e-01 0.000000000000000000e+00
Cu 4.011175898814647867e-01 5.194387956543160545e-01 0.000000000000000000e+00
Cu 4.005084440958312508e-01 6.105187409312131663e-01 0.000000000000000000e+00
Cu 4.000442373087768622e-01 7.016645514608652601e-01 0.000000000000000000e+00
Cu 3.998913219333675162e-01 7.928544014114043970e-01 0.000000000000000000e+00
Cu 4.001179798533038845e-01 8.841383732882559521e-01 0.000000000000000000e+00
Cu 5.386150368188999948e-01 6.674415711086770231e-02 0.000000000000000000e+00
Cu 5.378811011605458825e-01 1.573112664374691771e-01 0.000000000000000000e+00
Cu 5.372930896727153849e-01 2.479302419232741195e-01 0.000000000000000000e+00
Cu 5.368254444458168129e-01 3.386109146505190126e-01 0.000000000000000000e+00
Cu 5.363853752685304732e-01 4.292961169795087573e-01 0.000000000000000000e+00
Cu 5.356681502705178399e-01 5.198066078358750675e-01 0.000000000000000000e+00
Cu 5.347243797635110596e-01 6.103141548335777600e-01 0.000000000000000000e+00
Cu 5.338804875985140308e-01 7.011291902203576898e-01 0.000000000000000000e+00
Cu 5.332425611974140889e-01 7.922713589096226361e-01 0.000000000000000000e+00
Cu 5.328774209909906689e-01 8.836667154912182243e-01 0.000000000000000000e+00
Cu 6.730900718560062224e-01 6.788838252305907928e-02 0.000000000000000000e+00
Cu 6.725207176549535815e-01 1.584311162950333973e-01 0.000000000000000000e+00
Cu 6.720595335374126567e-01 2.490222319206680801e-01 0.000000000000000000e+00
Cu 6.717066340039692385e-01 3.396639843682182636e-01 0.000000000000000000e+00
Cu 6.713544401697280062e-01 4.302887596680995963e-01 0.000000000000000000e+00
Cu 6.709507575222868336e-01 5.207499272510525135e-01 0.000000000000000000e+00
Cu 6.694239794047092129e-01 6.104856773095079792e-01 0.000000000000000000e+00
Cu 6.676658691102336229e-01 7.008071328639177144e-01 0.000000000000000000e+00
Cu 6.663737743851985140e-01 7.923009005720038633e-01 0.000000000000000000e+00
Cu 6.652751511724273037e-01 8.840830415421371269e-01 0.000000000000000000e+00
Cu 8.076423728320217821e-01 6.878906362464884405e-02 0.000000000000000000e+00
Cu 8.072181409183695200e-01 1.592895323600322377e-01 0.000000000000000000e+00
Cu 8.068860244844474616e-01 2.498544950436998036e-01 0.000000000000000000e+00
Cu 8.066428510615433201e-01 3.405008309780259146e-01 0.000000000000000000e+00
Cu 8.065168425150598397e-01 4.312264585558794883e-01 0.000000000000000000e+00
Cu 8.062012730446119768e-01 5.219198476823109223e-01 0.000000000000000000e+00
Cu 8.061890873489843123e-01 6.123996855773722325e-01 0.000000000000000000e+00
Cu 8.011651223939910693e-01 7.000817917347651465e-01 0.000000000000000000e+00
Cu 7.982329373959672347e-01 7.926356414975896936e-01 0.000000000000000000e+00
Cu 7.975552688680147551e-01 8.861460499603621699e-01 0.000000000000000000e+00
Cu 9.423179897101696678e-01 6.946366240939791381e-02 0.000000000000000000e+00
Cu 9.420236398973009795e-01 1.598939876269627747e-01 0.000000000000000000e+00
Cu 9.417940033136925626e-01 2.503989962150951487e-01 0.000000000000000000e+00
Cu 9.416665883562557182e-01 3.410144125638070456e-01 0.000000000000000000e+00
Cu 9.415978247946724666e-01 4.317839140715222235e-01 0.000000000000000000e+00
Cu 9.418090758263829576e-01 5.227908889755098487e-01 0.000000000000000000e+00
Cu 9.411636778176580842e-01 6.141042660770378303e-01 0.000000000000000000e+00
Cu 9.439124237393922146e-01 7.062477124246786531e-01 0.000000000000000000e+00
Cu 9.185680424081874573e-01 7.894584623795795064e-01 0.000000000000000000e+00
Cu 9.355870558525701819e-01 8.843318887093993830e-01 0.000000000000000000e+00
Cu 1.077171148030720005e+00 6.993331103060464182e-02 0.000000000000000000e+00
Cu 1.076988534333468861e+00 1.602606767160884293e-01 0.000000000000000000e+00
Cu 1.076855554104944046e+00 2.506540068881576988e-01 0.000000000000000000e+00
Cu 1.076793515290823455e+00 3.411431502519024495e-01 0.000000000000000000e+00
Cu 1.076890319069909063e+00 4.317724980231477105e-01 0.000000000000000000e+00
Cu 1.076942582051964470e+00 5.226315786375739236e-01 0.000000000000000000e+00
Cu 1.078082202575729953e+00 6.137943713437367110e-01 0.000000000000000000e+00
Cu 1.075993579426830937e+00 7.058250073691496596e-01 0.000000000000000000e+00
Cu 1.102056570351785059e+00 7.886733712576549093e-01 0.000000000000000000e+00
Cu 1.085920948494876415e+00 8.835806289961135596e-01 0.000000000000000000e+00
Cu 1.212251894026939780e+00 7.023056738836110091e-02 0.000000000000000000e+00
Cu 1.212170532073832296e+00 1.604250780941303134e-01 0.000000000000000000e+00
Cu 1.212128386874560260e+00 2.506533124874854579e-01 0.000000000000000000e+00
Cu 1.212183251590570165e+00 3.409119381826614670e-01 0.000000000000000000e+00
Cu 1.212342843726882613e+00 4.311998225982519584e-01 0.000000000000000000e+00
Cu 1.212932365576161020e+00 5.214284258959113183e-01 0.000000000000000000e+00
Cu 1.213427889582744834e+00 6.114548503239728428e-01 0.000000000000000000e+00
Cu 1.219120209236010277e+00 6.986788703337248885e-01 0.000000000000000000e+00
Cu 1.222853811110308664e+00 7.908057795540232027e-01 0.000000000000000000e+00
Cu 1.224461591538635874e+00 8.839280766934576317e-01 0.000000000000000000e+00
Cu 1.347597553252458891e+00 7.039984872021472218e-02 0.000000000000000000e+00
Cu 1.347608356699294685e+00 1.604431955640031882e-01 0.000000000000000000e+00
Cu 1.347683667132375529e+00 2.504683803920109142e-01 0.000000000000000000e+00
Cu 1.347865411437419558e+00 3.404332331043671833e-01 0.000000000000000000e+00
Cu 1.348278836066634012e+00 4.302714540358393291e-01 0.000000000000000000e+00
Cu 1.348964653171942807e+00 5.198917343290579973e-01 0.000000000000000000e+00
Cu 1.350987828476023722e+00 6.088045767957744880e-01 0.000000000000000000e+00
Cu 1.353436926584401512e+00 6.983725720372991885e-01 0.000000000000000000e+00
Cu 1.355598606367725445e+00 7.891967048440228227e-01 0.000000000000000000e+00
Cu 1.357652795411420588e+00 8.803580643385019444e-01 0.000000000000000000e+00
Cu 1.483216400290215953e+00 7.049171291943312490e-02 0.000000000000000000e+00
Cu 1.483322318357811032e+00 1.603843466191968714e-01 0.000000000000000000e+00
Cu 1.483537989751133379e+00 2.502000738175690908e-01 0.000000000000000000e+00
Cu 1.483907860879961849e+00 3.398636439367704321e-01 0.000000000000000000e+00
Cu 1.484484075181653484e+00 4.293260504763019014e-01 0.000000000000000000e+00
Cu 1.485513674048739130e+00 5.185143663239325518e-01 0.000000000000000000e+00
Cu 1.486934377271210472e+00 6.077481748249430327e-01 0.000000000000000000e+00
Cu 1.488461100648690749e+00 6.974512397465117974e-01 0.000000000000000000e+00
Cu 1.489995409676769356e+00 7.876608954356526526e-01 0.000000000000000000e+00
Cu 1.491422837410727897e+00 8.782268404826029107e-01 0.000000000000000000e+00
Cu 1.619080938944504444e+00 7.054821919310695633e-02 0.000000000000000000e+00
Cu 1.619297137318168600e+00 1.603144582636704674e-01 0.000000000000000000e+00
Cu 1.619696369557155347e+00 2.499451046774639473e-01 0.000000000000000000e+00
Cu 1.620258530730564805e+00 3.393598304461485915e-01 0.000000000000000000e+00
Cu 1.621005074862264639e+00 4.285454442328736069e-01 0.000000000000000000e+00
Cu 1.621922057604687106e+00 5.176344007948439074e-01 0.000000000000000000e+00
Cu 1.622922874082626921e+00 6.068731576002743822e-01 0.000000000000000000e+00
Cu 1.623944180456156072e+00 6.964467834067762375e-01 0.000000000000000000e+00
Cu 1.624967319326135584e+00 7.864063147847154545e-01 0.000000000000000000e+00
Cu 1.625936621000460436e+00 8.766716592938798014e-01 0.000000000000000000e+00
Cu 1.755120055367045406e+00 7.058042874824597968e-02 0.000000000000000000e+00
Cu 1.755493007085882740e+00 1.602666129003424145e-01 0.000000000000000000e+00
Cu 1.756133550469575866e+00 2.497604712508990910e-01 0.000000000000000000e+00
Cu 1.756930156061638160e+00 3.389858431178685017e-01 0.000000000000000000e+00
Cu 1.757769813599886266e+00 4.279947253465725687e-01 0.000000000000000000e+00
Cu 1.758547819133465806e+00 5.169534117840601795e-01 0.000000000000000000e+00
Cu 1.759211653146482979e+00 6.060675603354689356e-01 0.000000000000000000e+00
Cu 1.759786588489681503e+00 6.954956542383425866e-01 0.000000000000000000e+00
Cu 1.760344385879881512e+00 7.852944541720595639e-01 0.000000000000000000e+00
Cu 1.760959086002715113e+00 8.753807360908775204e-01 0.000000000000000000e+00
Cu 1.891219104590934119e+00 7.053890214486012444e-02 0.000000000000000000e+00
Cu 1.891846540034724633e+00 1.602101233487452647e-01 0.000000000000000000e+00
Cu 1.892840602003092565e+00 2.496184726866679804e-01 0.000000000000000000e+00
Cu 1.893946347888566306e+00 3.387085192198412420e-01 0.000000000000000000e+00
Cu 1.894919173250746214e+00 4.275747149824249971e-01 0.000000000000000000e+00
Cu 1.895585033832182242e+00 5.163939762356151153e-01 0.000000000000000000e+00
Cu 1.895906757753051286e+00 6.053613224143143956e-01 0.000000000000000000e+00
Cu 1.895992071901842158e+00 6.946428002638173060e-01 0.000000000000000000e+00
Cu 1.896037907822566426e+00 7.843184163925591701e-01 0.000000000000000000e+00
Cu 1.896267881068428585e+00 8.743131692060721605e-01 0.000000000000000000e+00
Cu 2.027210979151745196e+00 7.028159953624053824e-02 0.000000000000000000e+00
Cu 2.028284801648360780e+00 1.600177505668352873e-01 0.000000000000000000e+00
Cu 2.029830577980073159e+00 2.493790521377813596e-01 0.000000000000000000e+00
Cu 2.031388322397821966e+00 3.383731924519698397e-01 0.000000000000000000e+00
Cu 2.032571062924818595e+00 4.271806303540694461e-01 0.000000000000000000e+00
Cu 2.033152458163936860e+00 5.159703014290047962e-01 0.000000000000000000e+00
Cu 2.033101869137396989e+00 6.048613476365986008e-01 0.000000000000000000e+00
Cu 2.032589819134059894e+00 6.940136073778283565e-01 0.000000000000000000e+00
Cu 2.031960672631635489e+00 7.835919597633473899e-01 0.000000000000000000e+00
Cu 2.031645036619918798e+00 8.735841452542714158e-01 0.000000000000000000e+00
Cu 2.162842612945854004e+00 6.952544118681888707e-02 0.000000000000000000e+00
Cu 2.164738722503620760e+00 1.594234004504342661e-01 0.000000000000000000e+00
Cu 2.167179194535364228e+00 2.487387544928889305e-01 0.000000000000000000e+00
Cu 2.169351370427505810e+00 3.377048221278052265e-01 0.000000000000000000e+00
Cu 2.170752808745536999e+00 4.266844016721952348e-01 0.000000000000000000e+00
Cu 2.171275019953442520e+00 5.157533517917319843e-01 0.000000000000000000e+00
Cu 2.170890050130406035e+00 6.047979250109672966e-01 0.000000000000000000e+00
Cu 2.169654663191129096e+00 6.938866333745909998e-01 0.000000000000000000e+00
Cu 2.168033154583036026e+00 7.833691059700356174e-01 0.000000000000000000e+00
Cu 2.166813126043192650e+00 8.734628653855320835e-01 0.000000000000000000e+00
Cu 2.297653199562639248e+00 6.772126726098795513e-02 0.000000000000000000e+00
Cu 2.301205361382341330e+00 1.579019150315483233e-01 0.000000000000000000e+00
Cu 2.305098723981864328e+00 2.471218231268283716e-01 0.000000000000000000e+00
Cu 2.307870179999757632e+00 3.363454037638234917e-01 0.000000000000000000e+00
Cu 2.309331111469189235e+00 4.259955759038752676e-01 0.000000000000000000e+00
Cu 2.309816479665475875e+00 5.157879716705360273e-01 0.000000000000000000e+00
Cu 2.309298809896267901e+00 6.054906015212054848e-01 0.000000000000000000e+00
Cu 2.307392297147094595e+00 6.948126765185235199e-01 0.000000000000000000e+00
Cu 2.304244001387264706e+00 7.841619193953764944e-01 0.000000000000000000e+00
Cu 2.301298435315855873e+00 8.744885323943779598e-01 0.000000000000000000e+00
Cu 2.430529171932322541e+00 6.354915075630442056e-02 0.000000000000000000e+00
Cu 2.438078158203508927e+00 1.541512168463892440e-01 0.000000000000000000e+00
Cu 2.443885996417826334e+00 2.436616380776414070e-01 0.000000000000000000e+00
Cu 2.446606243600766284e+00 3.342698332207709178e-01 0.000000000000000000e+00
Cu 2.448111513249818127e+00 4.251126985761953803e-01 0.000000000000000000e+00
Cu 2.448576813530891183e+00 5.160301326396029564e-01 0.000000000000000000e+00
Cu 2.447977316073145726e+00 6.069276834465215931e-01 0.000000000000000000e+00
Cu 2.446086317604668992e+00 6.976310569626966718e-01 0.000000000000000000e+00
Cu 2.440983603113119571e+00 7.872646457589785873e-01 0.000000000000000000e+00
Cu 2.433984368919528851e+00 8.779817224880697157e-01 0.000000000000000000e+00
Cu 2.557483284892854591e+00 5.045312068463461697e-02 0.000000000000000000e+00
Cu 2.577047348176690011e+00 1.452398091527191681e-01 0.000000000000000000e+00
Cu 2.582300926148024089e+00 2.391807377632943210e-01 0.000000000000000000e+00
Cu 2.585445774168643407e+00 3.319614006473111112e-01 0.000000000000000000e+00
Cu 2.586949006789387884e+00 4.241823842424955471e-01 0.000000000000000000e+00
Cu 2.587404473199016675e+00 5.162848743123746864e-01 0.000000000000000000e+00
Cu 2.586789870101300792e+00 6.085785084072927731e-01 0.000000000000000000e+00
Cu 2.584469484827803143e+00 7.014915331844107094e-01 0.000000000000000000e+00
Cu 2.579927813646819779e+00 7.955865398175248071e-01 0.000000000000000000e+00
Cu 2.560918603962762052e+00 8.905464735340349325e-01 0.000000000000000000e+00
