200

Cu 0.000000000000000000e+00 6.389094199897102366e-02 0.000000000000000000e+00
Cu 0.000000000000000000e+00 1.554109599067446668e-01 0.000000000000000000e+00
Cu 0.000000000000000000e+00 2.447620855471532575e-01 0.000000000000000000e+00
Cu 0.000000000000000000e+00 3.332300947481977027e-01 0.000000000000000000e+00
Cu 0.000000000000000000e+00 4.215928474759953470e-01 0.000000000000000000e+00
Cu 0.000000000000000000e+00 5.103701653147919570e-01 0.000000000000000000e+00
Cu 0.000000000000000000e+00 5.999899236214975007e-01 0.000000000000000000e+00
Cu 0.000000000000000000e+00 6.907948103016000596e-01 0.000000000000000000e+00
Cu 0.000000000000000000e+00 7.831787431480939921e-01 0.000000000000000000e+00
Cu 0.000000000000000000e+00 8.777473253840476497e-01 0.000000000000000000e+00
Cu 1.428563247889068355e-01 7.074799736427432595e-02 0.000000000000000000e+00
Cu 1.409422237577276360e-01 1.577672430586564978e-01 0.000000000000000000e+00
Cu 1.403917079521147526e-01 2.456700195727208047e-01 0.000000000000000000e+00
Cu 1.395934130816005592e-01 3.335098833487034620e-01 0.000000000000000000e+00
Cu 1.385494212540314130e-01 4.214339458832544461e-01 0.000000000000000000e+00
Cu 1.372744583529408591e-01 5.098404053578968753e-01 0.000000000000000000e+00
Cu 1.358849876886174257e-01 5.991229800770775382e-01 0.000000000000000000e+00
Cu 1.345718664328988401e-01 6.895488819413436721e-01 0.000000000000000000e+00
Cu 1.335340372972291523e-01 7.809868658873018177e-01 0.000000000000000000e+00
Cu 1.343655859009657283e-01 8.721655460324637676e-01 0.000000000000000000e+00
Cu 2.850694185555525118e-01 7.446746138004609050e-02 0.000000000000000000e+00
Cu 2.830967362051352021e-01 1.610303276937262718e-01 0.000000000000000000e+00
Cu 2.813751185714300496e-01 2.477192897914763103e-01 0.000000000000000000e+00
Cu 2.796756116550683235e-01 3.347021101462896442e-01 0.000000000000000000e+00
Cu 2.775233538958402080e-01 4.219243324638969894e-01 0.000000000000000000e+00
Cu 2.749073257628952827e-01 5.096467976218359563e-01 0.000000000000000000e+00
Cu 2.720232663284939401e-01 5.982429186189311965e-01 0.000000000000000000e+00
Cu 2.692831121310042541e-01 6.879659397476391991e-01 0.000000000000000000e+00
Cu 2.674940662166880312e-01 7.786399657177752731e-01 0.000000000000000000e+00
Cu 2.671887296110510013e-01 8.700637405588067530e-01 0.000000000000000000e+00
Cu 4.272883848251915473e-01 7.767914227165101382e-02 0.000000000000000000e+00
Cu 4.252043189167908355e-01 1.641158832815720336e-01 0.000000000000000000e+00
Cu 4.229354618146698996e-01 2.503816561290301279e-01 0.000000000000000000e+00
Cu 4.202986402546620703e-01 3.366593987338179494e-01 0.000000000000000000e+00
Cu 4.170046418989369896e-01 4.231180468777662185e-01 0.000000000000000000e+00
Cu 4.129187879549969797e-01 5.100105684033360287e-01 0.000000000000000000e+00
Cu 4.082693450735701557e-01 5.977574001622005806e-01 0.000000000000000000e+00
Cu 4.036975497678156333e-01 6.867934605876867549e-01 0.000000000000000000e+00
Cu 4.000658795539979162e-01 7.774416109029618216e-01 0.000000000000000000e+00
Cu 3.981248222554581440e-01 8.696427105921163969e-01 0.000000000000000000e+00
Cu 5.695781693744060847e-01 8.093878223259683147e-02 0.000000000000000000e+00
Cu 5.673669232049945998e-01 1.673163883759195836e-01 0.000000000000000000e+00
Cu 5.647454937424776222e-01 2.533916376373102075e-01 0.000000000000000000e+00
Cu 5.613592504468118971e-01 3.392611100957871884e-01 0.000000000000000000e+00
Cu 5.568529828480163202e-01 4.251173061645380780e-01 0.000000000000000000e+00
Cu 5.510511972744730480e-01 5.113060848664257030e-01 0.000000000000000000e+00
Cu 5.441888994667762880e-01 5.983537083521948130e-01 0.000000000000000000e+00
Cu 5.369493983303645912e-01 6.869422433889010859e-01 0.000000000000000000e+00
Cu 5.304063987745852859e-01 7.778150782426653809e-01 0.000000000000000000e+00
Cu 5.259296451328254740e-01 8.712182201785774183e-01 0.000000000000000000e+00
Cu 7.119086005086248115e-01 8.437538413964675021e-02 0.000000000000000000e+00
Cu 7.096711941974310767e-01 1.707652071014733874e-01 0.000000000000000000e+00
Cu 7.068016232530996978e-01 2.567591280629767936e-01 0.000000000000000000e+00
Cu 7.027602707133263626e-01 3.424492914376333630e-01 0.000000000000000000e+00
Cu 6.968744051805222384e-01 4.279705140856537859e-01 0.000000000000000000e+00
Cu 6.889589757388854263e-01 5.138083458589249863e-01 0.000000000000000000e+00
Cu 6.792449246005750618e-01 6.006455150855867231e-01 0.000000000000000000e+00
Cu 6.684086788459568940e-01 6.893657561670313294e-01 0.000000000000000000e+00
Cu 6.575162514057066865e-01 7.809482444807768209e-01 0.000000000000000000e+00
Cu 6.486172468737234631e-01 8.761618384980370822e-01 0.000000000000000000e+00
Cu 8.541677287247204653e-01 8.787786131084365793e-02 0.000000000000000000e+00
Cu 8.522136608781414324e-01 1.745194748978414756e-01 0.000000000000000000e+00
Cu 8.493394005222441034e-01 2.605986002673191804e-01 0.000000000000000000e+00
Cu 8.445431268145974224e-01 3.461993249681418194e-01 0.000000000000000000e+00
Cu 8.371583663524019281e-01 4.316827302504081532e-01 0.000000000000000000e+00
Cu 8.264009182807673382e-01 5.174627251627352820e-01 0.000000000000000000e+00
Cu 8.128351536726592386e-01 6.051642156263552508e-01 0.000000000000000000e+00
Cu 7.969138969224254243e-01 6.955854578780354958e-01 0.000000000000000000e+00
Cu 7.802417849869475175e-01 7.894256015662001191e-01 0.000000000000000000e+00
Cu 7.644787762500970807e-01 8.869594900323946041e-01 0.000000000000000000e+00
Cu 9.961868626178871367e-01 9.111308900856585069e-02 0.000000000000000000e+00
Cu 9.947398618120542046e-01 1.783062317275886932e-01 0.000000000000000000e+00
Cu 9.928817858412729569e-01 2.653870996126496129e-01 0.000000000000000000e+00
Cu 9.873611872586239846e-01 3.508505183507512060e-01 0.000000000000000000e+00
Cu 9.774456333985589440e-01 4.361618915205017766e-01 0.000000000000000000e+00
Cu 9.624743397054660310e-01 5.238750324668181024e-01 0.000000000000000000e+00
Cu 9.422879721116248497e-01 6.148348039673469101e-01 0.000000000000000000e+00
Cu 9.210440375345720909e-01 7.088565532833213112e-01 0.000000000000000000e+00
Cu 8.963781567345771029e-01 8.044676238686343517e-01 0.000000000000000000e+00
Cu 8.722635875764639390e-01 9.062164296885376613e-01 0.000000000000000000e+00
Cu 1.137919139344391040e+00 9.358098205576970141e-02 0.000000000000000000e+00
Cu 1.137040589659080059e+00 1.813712208632753953e-01 0.000000000000000000e+00
Cu 1.136613574214519806e+00 2.706398154280135748e-01 0.000000000000000000e+00
Cu 1.132758250179163317e+00 3.583174940314155510e-01 0.000000000000000000e+00
Cu 1.116703882886276755e+00 4.430227661077951185e-01 0.000000000000000000e+00
Cu 1.090849312071131338e+00 5.370771811400736340e-01 0.000000000000000000e+00
Cu 1.064508219248184284e+00 6.341101624103059331e-01 0.000000000000000000e+00
Cu 1.037841946032185492e+00 7.282591150657389267e-01 0.000000000000000000e+00
Cu 1.278246655483795235e+00 7.788316990579092769e-01 0.000000000000000000e+00
Cu 1.278776389220095844e+00 8.812134308589365528e-01 0.000000000000000000e+00
Cu 1.279398855690252690e+00 9.475118710153929147e-02 0.000000000000000000e+00
Cu 1.279211781001039716e+00 1.828903625355586260e-01 0.000000000000000000e+00
Cu 1.278634840828039243e+00 2.729924186276639353e-01 0.000000000000000000e+00
Cu 1.283197709394264363e+00 3.686917732501981404e-01 0.000000000000000000e+00
Cu 1.254725192280793378e+00 4.653331959640562010e-01 0.000000000000000000e+00
Cu 1.200225358532888142e+00 5.577556040148607952e-01 0.000000000000000000e+00
Cu 1.177312130408494362e+00 6.590292148875096512e-01 0.000000000000000000e+00
Cu 1.391170681717464275e+00 6.765316699045451632e-01 0.000000000000000000e+00
Cu 1.389114486737185628e+00 7.798197636354370355e-01 0.000000000000000000e+00
Cu 1.391144809430800100e+00 8.806539154870374198e-01 0.000000000000000000e+00
Cu 1.421126448618535099e+00 9.435552088254905989e-02 0.000000000000000000e+00
Cu 1.421355853346952802e+00 1.821668921284768650e-01 0.000000000000000000e+00
Cu 1.422555070381532838e+00 2.711387690905026071e-01 0.000000000000000000e+00
Cu 1.420992084806505851e+00 3.627253862312043164e-01 0.000000000000000000e+00
Cu 1.468746346766095723e+00 4.359037052600113760e-01 0.000000000000000000e+00
Cu 1.448702882957400018e+00 5.264425091787595656e-01 0.000000000000000000e+00
Cu 1.513144534331364310e+00 6.026605893278774717e-01 0.000000000000000000e+00
Cu 1.506333047729081942e+00 6.908466062958859011e-01 0.000000000000000000e+00
Cu 1.506505392395642406e+00 7.799096269572504125e-01 0.000000000000000000e+00
Cu 1.509820467967358359e+00 8.758847336273871687e-01 0.000000000000000000e+00
Cu 1.563341386572809633e+00 9.245895950519383844e-02 0.000000000000000000e+00
Cu 1.564532862566033078e+00 1.794992081752832813e-01 0.000000000000000000e+00
Cu 1.565560191047490113e+00 2.658295578555785466e-01 0.000000000000000000e+00
Cu 1.576842951650046398e+00 3.464058926113888215e-01 0.000000000000000000e+00
Cu 1.588095840820274107e+00 4.325743369076054945e-01 0.000000000000000000e+00
Cu 1.622190493852514903e+00 5.107104511436451055e-01 0.000000000000000000e+00
Cu 1.621543193858534515e+00 5.983785167277292372e-01 0.000000000000000000e+00
Cu 1.633246162246980937e+00 6.920018405317005517e-01 0.000000000000000000e+00
Cu 1.632579771570350724e+00 7.814998256138295796e-01 0.000000000000000000e+00
Cu 1.633297876720600561e+00 8.732723547744287718e-01 0.000000000000000000e+00
Cu 1.706561069941269659e+00 8.958645462630056289e-02 0.000000000000000000e+00
Cu 1.708185579645969732e+00 1.757729882970616719e-01 0.000000000000000000e+00
Cu 1.711984573108898067e+00 2.600946571608505620e-01 0.000000000000000000e+00
Cu 1.718698025802317231e+00 3.427220149228089041e-01 0.000000000000000000e+00
Cu 1.731518527698216348e+00 4.232934986996430560e-01 0.000000000000000000e+00
Cu 1.744625097826696614e+00 5.086711232754745904e-01 0.000000000000000000e+00
Cu 1.754201035774183959e+00 5.978962329497834460e-01 0.000000000000000000e+00
Cu 1.759126968322077156e+00 6.879032065697562315e-01 0.000000000000000000e+00
Cu 1.762150790861255256e+00 7.795019248970181946e-01 0.000000000000000000e+00
Cu 1.763168598374236229e+00 8.706540798886575061e-01 0.000000000000000000e+00
Cu 1.850437234653692142e+00 8.649628770246049758e-02 0.000000000000000000e+00
Cu 1.852718745158571600e+00 1.720919630683919732e-01 0.000000000000000000e+00
Cu 1.856432016583507982e+00 2.564219888122578062e-01 0.000000000000000000e+00
Cu 1.862926453450170383e+00 3.391030339073941025e-01 0.000000000000000000e+00
Cu 1.871151381410249837e+00 4.219669586698602259e-01 0.000000000000000000e+00
Cu 1.879486941398113453e+00 5.072512542841831618e-01 0.000000000000000000e+00
Cu 1.886300895601906280e+00 5.953227154944895627e-01 0.000000000000000000e+00
Cu 1.890974554878525948e+00 6.851229248213221990e-01 0.000000000000000000e+00
Cu 1.893605401249436770e+00 7.756060456023495808e-01 0.000000000000000000e+00
Cu 1.895650074874027258e+00 8.663332900985357687e-01 0.000000000000000000e+00
Cu 1.994757486875879948e+00 8.378688554629762364e-02 0.000000000000000000e+00
Cu 1.997132815856189181e+00 1.692999248578737070e-01 0.000000000000000000e+00
Cu 2.001086217982970705e+00 2.538035125673430148e-01 0.000000000000000000e+00
Cu 2.006453806002792106e+00 3.375579528885161440e-01 0.000000000000000000e+00
Cu 2.012433321834059541e+00 4.216398038572894968e-01 0.000000000000000000e+00
Cu 2.017992172411684937e+00 5.070482943707967927e-01 0.000000000000000000e+00
Cu 2.022564927828664150e+00 5.942056727098051772e-01 0.000000000000000000e+00
Cu 2.025856690659724180e+00 6.828442887359174041e-01 0.000000000000000000e+00
Cu 2.028009351645475800e+00 7.723132205814486895e-01 0.000000000000000000e+00
Cu 2.029679347175605386e+00 8.622057726462708516e-01 0.000000000000000000e+00
Cu 2.138782700041915952e+00 8.164564189048689746e-02 0.000000000000000000e+00
Cu 2.141418680395904328e+00 1.673415699478375540e-01 0.000000000000000000e+00
Cu 2.145447276372094869e+00 2.523167413833106165e-01 0.000000000000000000e+00
Cu 2.150205983185356384e+00 3.368772913558313875e-01 0.000000000000000000e+00
Cu 2.154914341553753943e+00 4.216973352203529091e-01 0.000000000000000000e+00
Cu 2.158890225935946372e+00 5.073104977703248863e-01 0.000000000000000000e+00
Cu 2.161771355191139499e+00 5.939275466552785820e-01 0.000000000000000000e+00
Cu 2.163579708779814759e+00 6.815713408210192226e-01 0.000000000000000000e+00
Cu 2.164625173070713338e+00 7.700977305001734941e-01 0.000000000000000000e+00
Cu 2.165386365437153238e+00 8.592511696855940073e-01 0.000000000000000000e+00
Cu 2.282066558571629766e+00 7.968926622629703138e-02 0.000000000000000000e+00
Cu 2.285257442626622115e+00 1.658109989706698928e-01 0.000000000000000000e+00
Cu 2.289753986672258712e+00 2.511935439130492109e-01 0.000000000000000000e+00
Cu 2.294398537864553500e+00 3.362865573240366723e-01 0.000000000000000000e+00
Cu 2.298385415188006764e+00 4.217209114754486010e-01 0.000000000000000000e+00
Cu 2.301352890581092936e+00 5.077389457399301698e-01 0.000000000000000000e+00
Cu 2.303066792343603453e+00 5.942465818943942768e-01 0.000000000000000000e+00
Cu 2.303459233255862770e+00 6.812663736880890664e-01 0.000000000000000000e+00
Cu 2.302992003436924673e+00 7.690711696843988143e-01 0.000000000000000000e+00
Cu 2.302464852668962614e+00 8.577355110563216201e-01 0.000000000000000000e+00
Cu 2.423981069626782947e+00 7.708978796892539120e-02 0.000000000000000000e+00
Cu 2.428673215362411764e+00 1.637724618185003589e-01 0.000000000000000000e+00
Cu 2.434382212151011693e+00 2.493744491153828957e-01 0.000000000000000000e+00
Cu 2.439213115137649712e+00 3.350559969618286948e-01 0.000000000000000000e+00
Cu 2.442690010082931185e+00 4.214295940854305700e-01 0.000000000000000000e+00
Cu 2.445053565790414662e+00 5.082484152560011736e-01 0.000000000000000000e+00
Cu 2.446123072370771645e+00 5.953031650742496295e-01 0.000000000000000000e+00
Cu 2.445330402442339235e+00 6.822484074980622593e-01 0.000000000000000000e+00
Cu 2.442822355641153464e+00 7.695029112405901150e-01 0.000000000000000000e+00
Cu 2.440210909576395082e+00 8.579728557048258430e-01 0.000000000000000000e+00
Cu 2.563328584863080017e+00 7.217373870411361581e-02 0.000000000000000000e+00
Cu 2.572139228220019724e+00 1.595564468808869096e-01 0.000000000000000000e+00
Cu 2.579925150123743016e+00 2.455504691247870075e-01 0.000000000000000000e+00
Cu 2.584395529120335322e+00 3.328919520220460782e-01 0.000000000000000000e+00
Cu 2.587677935975324139e+00 4.206222670744247938e-01 0.000000000000000000e+00
Cu 2.589721803401412004e+00 5.086662257265259779e-01 0.000000000000000000e+00
Cu 2.590381545887008752e+00 5.969426149928823699e-01 0.000000000000000000e+00
Cu 2.589372571367537290e+00 6.852528048596859822e-01 0.000000000000000000e+00
Cu 2.584286573422370559e+00 7.724956290861394459e-01 0.000000000000000000e+00
Cu 2.577101431893062955e+00 8.610812359893604828e-01 0.000000000000000000e+00
Cu 2.695073859526199378e+00 5.770420512172153016e-02 0.000000000000000000e+00
Cu 2.718273646223421380e+00 1.494302551662927692e-01 0.000000000000000000e+00
Cu 2.725040861555684923e+00 2.403688232161678706e-01 0.000000000000000000e+00
Cu 2.730022321035683319e+00 3.300244838298604932e-01 0.000000000000000000e+00
Cu 2.733153890770287475e+00 4.192529908828003804e-01 0.000000000000000000e+00
Cu 2.735054134059989206e+00 5.086033667646217005e-01 0.000000000000000000e+00
Cu 2.735580448196838876e+00 5.984181179140808382e-01 0.000000000000000000e+00
Cu 2.733862229606736971e+00 6.891419888253604853e-01 0.000000000000000000e+00
Cu 2.729581488738075823e+00 7.813361528585618387e-01 0.000000000000000000e+00
Cu 2.707904510655385621e+00 8.742583709711155837e-01 0.000000000000000000e+00
