200

Cu 0.000000000000000000e+00 5.867683222629126172e-02 0.000000000000000000e+00
Cu 0.000000000000000000e+00 1.526321944424231525e-01 0.000000000000000000e+00
Cu 0.000000000000000000e+00 2.449129428672867648e-01 0.000000000000000000e+00
Cu 0.000000000000000000e+00 3.364443103601494345e-01 0.000000000000000000e+00
Cu 0.000000000000000000e+00 4.277119848309854921e-01 0.000000000000000000e+00
Cu 0.000000000000000000e+00 5.189674826262479224e-01 0.000000000000000000e+00
Cu 0.000000000000000000e+00 6.104167314018452695e-01 0.000000000000000000e+00
Cu 0.000000000000000000e+00 7.022860780821836846e-01 0.000000000000000000e+00
Cu 0.000000000000000000e+00 7.950097968389466807e-01 0.000000000000000000e+00
Cu 0.000000000000000000e+00 8.894269880281169272e-01 0.000000000000000000e+00
Cu 1.370897553447126549e-01 6.464437906626277486e-02 0.000000000000000000e+00
Cu 1.356331860042503945e-01 1.546954197339065473e-01 0.000000000000000000e+00
Cu 1.356090501223189138e-01 2.457778428617550803e-01 0.000000000000000000e+00
Cu 1.355471449560095298e-01 3.368587079638778459e-01 0.000000000000000000e+00
Cu 1.354316362217328207e-01 4.278542827990926001e-01 0.000000000000000000e+00
Cu 1.352440950659927754e-01 5.188831032174383573e-01 0.000000000000000000e+00
Cu 1.350006143903278721e-01 6.100700363175197705e-01 0.000000000000000000e+00
Cu 1.347449267153006391e-01 7.015110753359798945e-01 0.000000000000000000e+00
Cu 1.345106223259751321e-01 7.930909318265553232e-01 0.000000000000000000e+00
Cu 1.357377600258150852e-01 8.837615816038969507e-01 0.000000000000000000e+00
Cu 2.734963717358680491e-01 6.743536833133359498e-02 0.000000000000000000e+00
Cu 2.723173354289943893e-01 1.571743629422796829e-01 0.000000000000000000e+00
Cu 2.716861581766050748e-01 2.472551602134588355e-01 0.000000000000000000e+00
Cu 2.714327149782059800e-01 3.377017727667890878e-01 0.000000000000000000e+00
Cu 2.711394775611922769e-01 4.282468070003991878e-01 0.000000000000000000e+00
Cu 2.707549371550702078e-01 5.188645462560710353e-01 0.000000000000000000e+00
Cu 2.703167424439953392e-01 6.095940302208809891e-01 0.000000000000000000e+00
Cu 2.699273528012221535e-01 7.003953114214350739e-01 0.000000000000000000e+00
Cu 2.700104228412901208e-01 7.909989719668946151e-01 0.000000000000000000e+00
Cu 2.707476228708048382e-01 8.814075473269903371e-01 0.000000000000000000e+00
Cu 4.098051623200307247e-01 6.934371607142741922e-02 0.000000000000000000e+00
Cu 4.088678946292675365e-01 1.590265329280031448e-01 0.000000000000000000e+00
Cu 4.081780272949222521e-01 2.488276978961494745e-01 0.000000000000000000e+00
Cu 4.077118888100815797e-01 3.388055935743622959e-01 0.000000000000000000e+00
Cu 4.072586978578653927e-01 4.288776427575360928e-01 0.000000000000000000e+00
Cu 4.066668581268538807e-01 5.189801353775851389e-01 0.000000000000000000e+00
Cu 4.060123009602490396e-01 6.091680547955750091e-01 0.000000000000000000e+00
Cu 4.054994972561175581e-01 6.994313329272633384e-01 0.000000000000000000e+00
Cu 4.053120486505641940e-01 7.897487364586185388e-01 0.000000000000000000e+00
Cu 4.055304365011502266e-01 8.801630792226928790e-01 0.000000000000000000e+00
Cu 5.461096166897884130e-01 7.082337005152720966e-02 0.000000000000000000e+00
Cu 5.453670394209089167e-01 1.604830602738770429e-01 0.000000000000000000e+00
Cu 5.447722277205546693e-01 2.501989597872383841e-01 0.000000000000000000e+00
Cu 5.442963566460347069e-01 3.399796129362721575e-01 0.000000000000000000e+00
Cu 5.438439674046068317e-01 4.297652553095055450e-01 0.000000000000000000e+00
Cu 5.430896015523020148e-01 5.193661380289513740e-01 0.000000000000000000e+00
Cu 5.420818121732673411e-01 6.089585082376889336e-01 0.000000000000000000e+00
Cu 5.411582019342334737e-01 6.988713080132343825e-01 0.000000000000000000e+00
Cu 5.404532732483077195e-01 7.891353967926640900e-01 0.000000000000000000e+00
Cu 5.400564326968089190e-01 8.796708420140056939e-01 0.000000000000000000e+00
Cu 6.824493268649742816e-01 7.200359431520726716e-02 0.000000000000000000e+00
Cu 6.818777062824439295e-01 1.616405095886675192e-01 0.000000000000000000e+00
Cu 6.814136718197891796e-01 2.513291060818624301e-01 0.000000000000000000e+00
Cu 6.810574819562699167e-01 3.410714589927393847e-01 0.000000000000000000e+00
Cu 6.806906369708675131e-01 4.307960796764063183e-01 0.000000000000000000e+00
Cu 6.802732504393547153e-01 5.203545706643661894e-01 0.000000000000000000e+00
Cu 6.786474843826719727e-01 6.091470767485236415e-01 0.000000000000000000e+00
Cu 6.767673058574613654e-01 6.985385068653674479e-01 0.000000000000000000e+00
Cu 6.753486272942359481e-01 7.891589151701065008e-01 0.000000000000000000e+00
Cu 6.741824568034139320e-01 8.800969516231337275e-01 0.000000000000000000e+00
Cu 8.188618207911424474e-01 7.292455039338467671e-02 0.000000000000000000e+00
Cu 8.184414157413140156e-01 1.625222856700376528e-01 0.000000000000000000e+00
Cu 8.181125271414342315e-01 2.521883508345768576e-01 0.000000000000000000e+00
Cu 8.178683361185581369e-01 3.419399675563673524e-01 0.000000000000000000e+00
Cu 8.177432657557592854e-01 4.317756213312904379e-01 0.000000000000000000e+00
Cu 8.173931271202693472e-01 5.215765698039823706e-01 0.000000000000000000e+00
Cu 8.174103936680586768e-01 6.111681339950809644e-01 0.000000000000000000e+00
Cu 8.120265521932874542e-01 6.977910108346544460e-01 0.000000000000000000e+00
Cu 8.089572410051413254e-01 7.894995782776556004e-01 0.000000000000000000e+00
Cu 8.081106272933744616e-01 8.822568380782507269e-01 0.000000000000000000e+00
Cu 9.553917662628675922e-01 7.360337906213537673e-02 0.000000000000000000e+00
Cu 9.551080284666263465e-01 1.631346743540747213e-01 0.000000000000000000e+00
Cu 9.548863230107880185e-01 2.527447842875134021e-01 0.000000000000000000e+00
Cu 9.547667025432013954e-01 3.424711477000859650e-01 0.000000000000000000e+00
Cu 9.546941818470495722e-01 4.323593484730683945e-01 0.000000000000000000e+00
Cu 9.549266644991020181e-01 5.224984469843128032e-01 0.000000000000000000e+00
Cu 9.541797699554863676e-01 6.129594781488246769e-01 0.000000000000000000e+00
Cu 9.572260156891700955e-01 7.043260946293233848e-01 0.000000000000000000e+00
Cu 9.301739229890892968e-01 7.861113694897433612e-01 0.000000000000000000e+00
Cu 9.481772360162795676e-01 8.803482511811834277e-01 0.000000000000000000e+00
Cu 1.092093100392570237e+00 7.406089008005545260e-02 0.000000000000000000e+00
Cu 1.091927452828189926e+00 1.634928338135244186e-01 0.000000000000000000e+00
Cu 1.091809155141481025e+00 2.529941487894121210e-01 0.000000000000000000e+00
Cu 1.091757242258283966e+00 3.425962798559863964e-01 0.000000000000000000e+00
Cu 1.091870566634521200e+00 4.323456392194939824e-01 0.000000000000000000e+00
Cu 1.091908104692203452e+00 5.223378913638141441e-01 0.000000000000000000e+00
Cu 1.093149591759198236e+00 6.126488598144542719e-01 0.000000000000000000e+00
Cu 1.090755618044464859e+00 7.039076638606187597e-01 0.000000000000000000e+00
Cu 1.118508765746728306e+00 7.853199353747107869e-01 0.000000000000000000e+00
Cu 1.101366224796326954e+00 8.796004028661758012e-01 0.000000000000000000e+00
Cu 1.229015416845367970e+00 7.433051724655313774e-02 0.000000000000000000e+00
Cu 1.228957747858819394e+00 1.636330296144185847e-01 0.000000000000000000e+00
Cu 1.228935498190502296e+00 2.529708611863429324e-01 0.000000000000000000e+00
Cu 1.229010325855404151e+00 3.423407120282387361e-01 0.000000000000000000e+00
Cu 1.229182432127221114e+00 4.317423388608677692e-01 0.000000000000000000e+00
Cu 1.229813772700933949e+00 5.210810154523893845e-01 0.000000000000000000e+00
Cu 1.230278473797427052e+00 6.102228699592167072e-01 0.000000000000000000e+00
Cu 1.236323510493929634e+00 6.963901742935618699e-01 0.000000000000000000e+00
Cu 1.240178323544935068e+00 7.876775030297685776e-01 0.000000000000000000e+00
Cu 1.241932322934049759e+00 8.800533126424230357e-01 0.000000000000000000e+00
Cu 1.366195885724578174e+00 7.445906919645348121e-02 0.000000000000000000e+00
Cu 1.366236091755612669e+00 1.636141372227201407e-01 0.000000000000000000e+00
Cu 1.366338442879447390e+00 2.527503855763520990e-01 0.000000000000000000e+00
Cu 1.366544389667899262e+00 3.418249314222100432e-01 0.000000000000000000e+00
Cu 1.366988074417905707e+00 4.307682780445393766e-01 0.000000000000000000e+00
Cu 1.367694859040267774e+00 5.194894763419464212e-01 0.000000000000000000e+00
Cu 1.369816371043368619e+00 6.074628642328752104e-01 0.000000000000000000e+00
Cu 1.372378679311198502e+00 6.961071554891719027e-01 0.000000000000000000e+00
Cu 1.374652250376590112e+00 7.860675663118196210e-01 0.000000000000000000e+00
Cu 1.376750590819064479e+00 8.763987159020741879e-01 0.000000000000000000e+00
Cu 1.503641580398680677e+00 7.450049662594336597e-02 0.000000000000000000e+00
Cu 1.503782143398672888e+00 1.635093816944985234e-01 0.000000000000000000e+00
Cu 1.504030424677544442e+00 2.524394079815844849e-01 0.000000000000000000e+00
Cu 1.504432970855938301e+00 3.412134868644294272e-01 0.000000000000000000e+00
Cu 1.505039999862039846e+00 4.297816911227317904e-01 0.000000000000000000e+00
Cu 1.506115702972136816e+00 5.180632943159071413e-01 0.000000000000000000e+00
Cu 1.507598750647970443e+00 6.063853046364855448e-01 0.000000000000000000e+00
Cu 1.509195504383530562e+00 6.951930010334744781e-01 0.000000000000000000e+00
Cu 1.510781461257283409e+00 7.845373181818890984e-01 0.000000000000000000e+00
Cu 1.512219552183735827e+00 8.742622568572687713e-01 0.000000000000000000e+00
Cu 1.641323630650486809e+00 7.450011125453998018e-02 0.000000000000000000e+00
Cu 1.641578398813543505e+00 1.633884418749573242e-01 0.000000000000000000e+00
Cu 1.642016130762161907e+00 2.521388605625867751e-01 0.000000000000000000e+00
Cu 1.642615425176462196e+00 3.406697662485654865e-01 0.000000000000000000e+00
Cu 1.643399997861401340e+00 4.289659248996147700e-01 0.000000000000000000e+00
Cu 1.644358132526079874e+00 5.171605939866738000e-01 0.000000000000000000e+00
Cu 1.645401992657789858e+00 6.055075302434295148e-01 0.000000000000000000e+00
Cu 1.646459745499868177e+00 6.942024654377529913e-01 0.000000000000000000e+00
Cu 1.647501521696926652e+00 7.833018947689348588e-01 0.000000000000000000e+00
Cu 1.648461526633582475e+00 8.727197140394306052e-01 0.000000000000000000e+00
Cu 1.779168889886805882e+00 7.447128672059454002e-02 0.000000000000000000e+00
Cu 1.779583658134601620e+00 1.632867378146655724e-01 0.000000000000000000e+00
Cu 1.780267523017999842e+00 2.519084256977778824e-01 0.000000000000000000e+00
Cu 1.781106259977883743e+00 3.402587125855798256e-01 0.000000000000000000e+00
Cu 1.781985074464873087e+00 4.283895610913477925e-01 0.000000000000000000e+00
Cu 1.782797658149148701e+00 5.164695255734272905e-01 0.000000000000000000e+00
Cu 1.783488168398397411e+00 6.047090948514931563e-01 0.000000000000000000e+00
Cu 1.784077230216431831e+00 6.932719001421966398e-01 0.000000000000000000e+00
Cu 1.784632559021837928e+00 7.822162589813169697e-01 0.000000000000000000e+00
Cu 1.785225632882688540e+00 8.714547181322791491e-01 0.000000000000000000e+00
Cu 1.917060469325511995e+00 7.436527553609829921e-02 0.000000000000000000e+00
Cu 1.917732521718656935e+00 1.631745666746468038e-01 0.000000000000000000e+00
Cu 1.918775204496196318e+00 2.517210515798745663e-01 0.000000000000000000e+00
Cu 1.919927075016140572e+00 3.399478729537200872e-01 0.000000000000000000e+00
Cu 1.920938703366252831e+00 4.279503636290845625e-01 0.000000000000000000e+00
Cu 1.921632583635283664e+00 5.159073129012274883e-01 0.000000000000000000e+00
Cu 1.921968377545557605e+00 6.040159887073424105e-01 0.000000000000000000e+00
Cu 1.922051596831821918e+00 6.924444951245487534e-01 0.000000000000000000e+00
Cu 1.922079597432092113e+00 7.812732005377188704e-01 0.000000000000000000e+00
Cu 1.922279032376985164e+00 8.704234929028481504e-01 0.000000000000000000e+00
Cu 2.054827766533657396e+00 7.403885753815442339e-02 0.000000000000000000e+00
Cu 2.055949743644970074e+00 1.629242446877137152e-01 0.000000000000000000e+00
Cu 2.057551363707577075e+00 2.514367579328651292e-01 0.000000000000000000e+00
Cu 2.059160207829923372e+00 3.395818597030991204e-01 0.000000000000000000e+00
Cu 2.060381778566707123e+00 4.275413025332980288e-01 0.000000000000000000e+00
Cu 2.060985840791008883e+00 5.154851629114284295e-01 0.000000000000000000e+00
Cu 2.060939096270277826e+00 6.035329780194432781e-01 0.000000000000000000e+00
Cu 2.060411113582999221e+00 6.918451623158310415e-01 0.000000000000000000e+00
Cu 2.059749990723820812e+00 7.805867476039461961e-01 0.000000000000000000e+00
Cu 2.059396042357910517e+00 8.697414011665747235e-01 0.000000000000000000e+00
Cu 2.192211230281381873e+00 7.320511914147385946e-02 0.000000000000000000e+00
Cu 2.194162088447707326e+00 1.622678962383226342e-01 0.000000000000000000e+00
Cu 2.196671675992542649e+00 2.507509734454894668e-01 0.000000000000000000e+00
Cu 2.198904457204896801e+00 3.388838015874952037e-01 0.000000000000000000e+00
Cu 2.200346401316898959e+00 4.270320703612719981e-01 0.000000000000000000e+00
Cu 2.200887332588823408e+00 5.152729740270922676e-01 0.000000000000000000e+00
Cu 2.200497092343935979e+00 6.034901651162758451e-01 0.000000000000000000e+00
Cu 2.199229885535710416e+00 6.917528504180944227e-01 0.000000000000000000e+00
Cu 2.197558217016761350e+00 7.804123107573611717e-01 0.000000000000000000e+00
Cu 2.196290187816908990e+00 8.696806361748928849e-01 0.000000000000000000e+00
Cu 2.328734844786904290e+00 7.130623697062256350e-02 0.000000000000000000e+00
Cu 2.332359215309834255e+00 1.606772954741345349e-01 0.000000000000000000e+00
Cu 2.336352240210808340e+00 2.490827278652986143e-01 0.000000000000000000e+00
Cu 2.339203088457977753e+00 3.374889863152497615e-01 0.000000000000000000e+00
Cu 2.340704448806285143e+00 4.263304398763632652e-01 0.000000000000000000e+00
Cu 2.341205970101638556e+00 5.153150451388331943e-01 0.000000000000000000e+00
Cu 2.340678107306167988e+00 6.042121161959299602e-01 0.000000000000000000e+00
Cu 2.338716771440823461e+00 6.927227423254086469e-01 0.000000000000000000e+00
Cu 2.335484331610778064e+00 7.812646234268568746e-01 0.000000000000000000e+00
Cu 2.332470971745242316e+00 8.707885331528329997e-01 0.000000000000000000e+00
Cu 2.463238466361297618e+00 6.700323807260225029e-02 0.000000000000000000e+00
Cu 2.470926099023021738e+00 1.568403151113500205e-01 0.000000000000000000e+00
Cu 2.476923259051745596e+00 2.455385210584515587e-01 0.000000000000000000e+00
Cu 2.479714229931459624e+00 3.353701338011937372e-01 0.000000000000000000e+00
Cu 2.481270236096483561e+00 4.254315766736257998e-01 0.000000000000000000e+00
Cu 2.481750233936243166e+00 5.155683981473930810e-01 0.000000000000000000e+00
Cu 2.481127634835135876e+00 6.056877749538009947e-01 0.000000000000000000e+00
Cu 2.479187970121708773e+00 6.956198564780466942e-01 0.000000000000000000e+00
Cu 2.473909673108991125e+00 7.844480435744678459e-01 0.000000000000000000e+00
Cu 2.466774256417388678e+00 8.744048617562786285e-01 0.000000000000000000e+00
Cu 2.591447512928325203e+00 5.358742367665528250e-02 0.000000000000000000e+00
Cu 2.611738307371850976e+00 1.477025921662465935e-01 0.000000000000000000e+00
Cu 2.617094300511771721e+00 2.409666368566499017e-01 0.000000000000000000e+00
Cu 2.620350665756547404e+00 3.330159980756981497e-01 0.000000000000000000e+00
Cu 2.621899419480882010e+00 4.244849332922898122e-01 0.000000000000000000e+00
Cu 2.622369085077609796e+00 5.158326152227517003e-01 0.000000000000000000e+00
Cu 2.621735554984992334e+00 6.073782922688150121e-01 0.000000000000000000e+00
Cu 2.619325446948054470e+00 6.995674947241796726e-01 0.000000000000000000e+00
Cu 2.614694517837113708e+00 7.929931734764846807e-01 0.000000000000000000e+00
Cu 2.594960895828406056e+00 8.872897584504579882e-01 0.000000000000000000e+00
