200

Cu 0.000000000000000000e+00 3.090609978336976340e-03 0.000000000000000000e+00
Cu 0.000000000000000000e+00 1.077065525362132514e-01 0.000000000000000000e+00
Cu 0.000000000000000000e+00 2.122465484282913262e-01 0.000000000000000000e+00
Cu 0.000000000000000000e+00 3.167629810267599821e-01 0.000000000000000000e+00
Cu 0.000000000000000000e+00 4.212794227640157541e-01 0.000000000000000000e+00
Cu 0.000000000000000000e+00 5.258025633716376657e-01 0.000000000000000000e+00
Cu 0.000000000000000000e+00 6.303353972035710129e-01 0.000000000000000000e+00
Cu 0.000000000000000000e+00 7.348828912737942476e-01 0.000000000000000000e+00
Cu 0.000000000000000000e+00 8.394645550238509779e-01 0.000000000000000000e+00
Cu 0.000000000000000000e+00 9.441258126210398949e-01 0.000000000000000000e+00
Cu 1.073292517197350221e-01 3.569941139249989230e-03 0.000000000000000000e+00
Cu 1.071431883905348548e-01 1.078746362682053844e-01 0.000000000000000000e+00
Cu 1.071046907328616765e-01 2.123205882533286404e-01 0.000000000000000000e+00
Cu 1.070795730545744257e-01 3.167997369817703301e-01 0.000000000000000000e+00
Cu 1.070585648237438320e-01 4.212920454165531847e-01 0.000000000000000000e+00
Cu 1.070410830883878200e-01 5.257947954703970916e-01 0.000000000000000000e+00
Cu 1.070278334150707583e-01 6.303051609746498363e-01 0.000000000000000000e+00
Cu 1.070208180330756154e-01 7.348182237937197492e-01 0.000000000000000000e+00
Cu 1.070299547832261750e-01 8.393125214882584118e-01 0.000000000000000000e+00
Cu 1.071812879969148424e-01 9.436848495257272873e-01 0.000000000000000000e+00
Cu 2.146128301036736574e-01 3.836028070676267363e-03 0.000000000000000000e+00
Cu 2.144112223481199619e-01 1.081275059654055182e-01 0.000000000000000000e+00
Cu 2.142833581823625766e-01 2.124758555815341454e-01 0.000000000000000000e+00
Cu 2.142140837710120871e-01 3.168890104111316552e-01 0.000000000000000000e+00
Cu 2.141639243988704144e-01 4.213321779720210492e-01 0.000000000000000000e+00
Cu 2.141268762805363379e-01 5.257911079855172032e-01 0.000000000000000000e+00
Cu 2.141061752451261513e-01 6.302553399789057043e-01 0.000000000000000000e+00
Cu 2.141104414628184349e-01 7.347054980471787733e-01 0.000000000000000000e+00
Cu 2.141754181377796273e-01 8.391063817409072367e-01 0.000000000000000000e+00
Cu 2.143147685792373414e-01 9.434669762119197722e-01 0.000000000000000000e+00
Cu 3.219188974599336284e-01 4.096945747693697161e-03 0.000000000000000000e+00
Cu 3.217061571440386625e-01 1.083635831016305229e-01 0.000000000000000000e+00
Cu 3.215448572404832617e-01 2.126736153837173737e-01 0.000000000000000000e+00
Cu 3.214325783200498998e-01 3.170241707563705158e-01 0.000000000000000000e+00
Cu 3.213513282080524003e-01 4.214021697116469012e-01 0.000000000000000000e+00
Cu 3.212905349894080720e-01 5.257946727811187992e-01 0.000000000000000000e+00
Cu 3.212616939775069236e-01 6.301941564682252972e-01 0.000000000000000000e+00
Cu 3.212794713060537211e-01 7.345816892891517957e-01 0.000000000000000000e+00
Cu 3.213464956412400153e-01 8.389430093055296744e-01 0.000000000000000000e+00
Cu 3.214619678262699010e-01 9.432814129985974683e-01 0.000000000000000000e+00
Cu 4.292855018207683004e-01 4.375532268739716797e-03 0.000000000000000000e+00
Cu 4.290545341454269912e-01 1.086074238889922772e-01 0.000000000000000000e+00
Cu 4.288749858202842713e-01 2.128814726210061237e-01 0.000000000000000000e+00
Cu 4.287440916019310544e-01 3.171876580518431243e-01 0.000000000000000000e+00
Cu 4.286494253774197905e-01 4.215077822078120984e-01 0.000000000000000000e+00
Cu 4.285660666896197735e-01 5.258174643024752237e-01 0.000000000000000000e+00
Cu 4.285086102392556828e-01 6.301337728879597977e-01 0.000000000000000000e+00
Cu 4.285135387104347937e-01 7.344705325695872755e-01 0.000000000000000000e+00
Cu 4.285686143318817032e-01 8.388066162667029424e-01 0.000000000000000000e+00
Cu 4.286534175904461730e-01 9.431189904465117069e-01 0.000000000000000000e+00
Cu 5.367409155744533589e-01 4.683658432530289628e-03 0.000000000000000000e+00
Cu 5.364853942425940048e-01 1.088667307832582309e-01 0.000000000000000000e+00
Cu 5.362880259825029139e-01 2.130962095731258610e-01 0.000000000000000000e+00
Cu 5.361487177156767370e-01 3.173603738781971551e-01 0.000000000000000000e+00
Cu 5.360598282763422429e-01 4.216396947256116357e-01 0.000000000000000000e+00
Cu 5.359982132391940546e-01 5.258995312014621559e-01 0.000000000000000000e+00
Cu 5.358847515606294243e-01 6.300870864464185317e-01 0.000000000000000000e+00
Cu 5.358054428577068151e-01 7.343477681207151164e-01 0.000000000000000000e+00
Cu 5.358459644162552049e-01 8.386963012796669892e-01 0.000000000000000000e+00
Cu 5.359154437726231235e-01 9.430134307363198243e-01 0.000000000000000000e+00
Cu 6.443139508387396575e-01 5.028028228672196120e-03 0.000000000000000000e+00
Cu 6.440272207388526571e-01 1.091473081843156584e-01 0.000000000000000000e+00
Cu 6.438066556025859866e-01 2.133178458102512332e-01 0.000000000000000000e+00
Cu 6.436556259718578810e-01 3.175295216015044386e-01 0.000000000000000000e+00
Cu 6.435749425127825774e-01 4.217691493368658229e-01 0.000000000000000000e+00
Cu 6.435497632060265261e-01 5.260134320026402799e-01 0.000000000000000000e+00
Cu 6.435450716335536780e-01 6.302066169972414533e-01 0.000000000000000000e+00
Cu 6.432025977794211258e-01 7.341358759045427673e-01 0.000000000000000000e+00
Cu 6.430155176326821653e-01 8.385774380590808041e-01 0.000000000000000000e+00
Cu 6.433587921895097539e-01 9.429840210448229287e-01 0.000000000000000000e+00
Cu 7.520341189888359867e-01 5.416238586781442314e-03 0.000000000000000000e+00
Cu 7.517093694505490031e-01 1.094561450550092102e-01 0.000000000000000000e+00
Cu 7.514589076454293304e-01 2.135505258977075937e-01 0.000000000000000000e+00
Cu 7.512885131912384606e-01 3.176901455865258628e-01 0.000000000000000000e+00
Cu 7.512022171580851060e-01 4.218673672094565008e-01 0.000000000000000000e+00
Cu 7.512038606809879893e-01 5.260779056982531898e-01 0.000000000000000000e+00
Cu 7.512590456542286299e-01 6.303198700881136318e-01 0.000000000000000000e+00
Cu 7.514194691279624250e-01 7.345774844146837346e-01 0.000000000000000000e+00
Cu 7.494901382130607637e-01 8.380309667912859695e-01 0.000000000000000000e+00
Cu 7.513788987787368701e-01 9.424783459443503153e-01 0.000000000000000000e+00
Cu 8.599305504000046563e-01 5.857157553669023811e-03 0.000000000000000000e+00
Cu 8.595618631713841662e-01 1.098022411505570201e-01 0.000000000000000000e+00
Cu 8.592770171860564243e-01 2.138018246297694047e-01 0.000000000000000000e+00
Cu 8.590824493190706290e-01 3.178448399791543588e-01 0.000000000000000000e+00
Cu 8.589850171617264829e-01 4.219234216519550662e-01 0.000000000000000000e+00
Cu 8.589869870716805300e-01 5.260339406131735451e-01 0.000000000000000000e+00
Cu 8.591220873760225807e-01 6.301752690467334883e-01 0.000000000000000000e+00
Cu 8.593306039099640747e-01 7.343276150977037231e-01 0.000000000000000000e+00
Cu 8.618069844761533371e-01 8.376450117298498421e-01 0.000000000000000000e+00
Cu 8.605422083663247790e-01 9.419831881650803096e-01 0.000000000000000000e+00
Cu 9.680302925505702705e-01 6.360047070363406690e-03 0.000000000000000000e+00
Cu 9.676143607317173601e-01 1.101957543363888958e-01 0.000000000000000000e+00
Cu 9.672952725465627788e-01 2.140811926333996695e-01 0.000000000000000000e+00
Cu 9.670798816928135588e-01 3.180003523549185807e-01 0.000000000000000000e+00
Cu 9.669771577158770004e-01 4.219395675795488132e-01 0.000000000000000000e+00
Cu 9.670078441017043724e-01 5.258788531662113019e-01 0.000000000000000000e+00
Cu 9.672058764306962209e-01 6.297663277866951681e-01 0.000000000000000000e+00
Cu 9.679242628379735036e-01 7.333904631234422489e-01 0.000000000000000000e+00
Cu 9.686456666719953645e-01 8.375403594252589512e-01 0.000000000000000000e+00
Cu 9.689788048583757307e-01 9.416579542860945562e-01 0.000000000000000000e+00
Cu 1.076356142934953075e+00 6.933091604411400002e-03 0.000000000000000000e+00
Cu 1.075894431451603683e+00 1.106469255996722495e-01 0.000000000000000000e+00
Cu 1.075548118419668464e+00 2.143993746849306159e-01 0.000000000000000000e+00
Cu 1.075322662738355861e+00 3.181674688025794007e-01 0.000000000000000000e+00
Cu 1.075231623797263447e+00 4.219315819002695256e-01 0.000000000000000000e+00
Cu 1.075301214070306211e+00 5.256666797066749108e-01 0.000000000000000000e+00
Cu 1.075609599505128466e+00 6.293339382115619163e-01 0.000000000000000000e+00
Cu 1.076062618623930600e+00 7.330915496396197550e-01 0.000000000000000000e+00
Cu 1.076564528731997372e+00 8.369561457674942195e-01 0.000000000000000000e+00
Cu 1.077202481758620545e+00 9.407909189782822645e-01 0.000000000000000000e+00
Cu 1.184923802295096973e+00 7.581231798219662150e-03 0.000000000000000000e+00
Cu 1.184425292759392789e+00 1.111644857869487496e-01 0.000000000000000000e+00
Cu 1.184067173244133020e+00 2.147681625160831609e-01 0.000000000000000000e+00
Cu 1.183848392577319775e+00 3.183629688679568415e-01 0.000000000000000000e+00
Cu 1.183776683330793222e+00 4.219324214812652518e-01 0.000000000000000000e+00
Cu 1.183871352971649804e+00 5.254736848715766406e-01 0.000000000000000000e+00
Cu 1.184115693320748175e+00 6.290348602250628307e-01 0.000000000000000000e+00
Cu 1.184475379062028377e+00 7.326523330879214368e-01 0.000000000000000000e+00
Cu 1.184965667058494265e+00 8.363055954887698151e-01 0.000000000000000000e+00
Cu 1.185610496632208077e+00 9.399512303812929126e-01 0.000000000000000000e+00
Cu 1.293738736059665939e+00 8.302561032536886348e-03 0.000000000000000000e+00
Cu 1.293223313570222022e+00 1.117521291114897258e-01 0.000000000000000000e+00
Cu 1.292879448378837948e+00 2.151970036974637512e-01 0.000000000000000000e+00
Cu 1.292688662626211960e+00 3.186046065264245830e-01 0.000000000000000000e+00
Cu 1.292638665433530010e+00 4.219704355847257449e-01 0.000000000000000000e+00
Cu 1.292715245200956709e+00 5.253235528935276122e-01 0.000000000000000000e+00
Cu 1.292905240178223059e+00 6.287057591194332717e-01 0.000000000000000000e+00
Cu 1.293215596666437150e+00 7.321393388391164159e-01 0.000000000000000000e+00
Cu 1.293671729244485702e+00 8.356180907761285859e-01 0.000000000000000000e+00
Cu 1.294294317264492067e+00 9.391159713940612219e-01 0.000000000000000000e+00
Cu 1.402793722605627735e+00 9.082680713755704807e-03 0.000000000000000000e+00
Cu 1.402296869605502705e+00 1.124017250627803860e-01 0.000000000000000000e+00
Cu 1.402007909206516745e+00 2.156836352507595922e-01 0.000000000000000000e+00
Cu 1.401878193041186549e+00 3.188957529115342138e-01 0.000000000000000000e+00
Cu 1.401860310256175302e+00 4.220468658056506506e-01 0.000000000000000000e+00
Cu 1.401919351216220466e+00 5.251793244349869383e-01 0.000000000000000000e+00
Cu 1.402050836788290011e+00 6.283454165245823120e-01 0.000000000000000000e+00
Cu 1.402284375542004025e+00 7.315815690219131806e-01 0.000000000000000000e+00
Cu 1.402666914176020851e+00 8.348943330915545857e-01 0.000000000000000000e+00
Cu 1.403246411836261087e+00 9.382534605452514942e-01 0.000000000000000000e+00
Cu 1.512067850033795402e+00 9.887117463707257442e-03 0.000000000000000000e+00
Cu 1.511648019378569296e+00 1.130836565947231781e-01 0.000000000000000000e+00
Cu 1.511476126381543716e+00 2.161999707378563229e-01 0.000000000000000000e+00
Cu 1.511459760399638697e+00 3.192104820093276119e-01 0.000000000000000000e+00
Cu 1.511506646585877967e+00 4.221391962672080833e-01 0.000000000000000000e+00
Cu 1.511553930510815880e+00 5.250413122167286728e-01 0.000000000000000000e+00
Cu 1.511599758725612253e+00 6.279810091699932206e-01 0.000000000000000000e+00
Cu 1.511703170797376039e+00 7.310114051012728265e-01 0.000000000000000000e+00
Cu 1.511953116641069128e+00 8.341545260972286213e-01 0.000000000000000000e+00
Cu 1.512440115386375794e+00 9.373838758071239008e-01 0.000000000000000000e+00
Cu 1.621525542203213766e+00 1.065158444486072678e-02 0.000000000000000000e+00
Cu 1.621278460773951879e+00 1.137352752669822942e-01 0.000000000000000000e+00
Cu 1.621316245344138540e+00 2.166767715945573936e-01 0.000000000000000000e+00
Cu 1.621480852474677326e+00 3.194830311525585498e-01 0.000000000000000000e+00
Cu 1.621626079618871286e+00 4.222155061263251352e-01 0.000000000000000000e+00
Cu 1.621665307410344870e+00 5.249315944699847192e-01 0.000000000000000000e+00
Cu 1.621597140745958177e+00 6.276721830133755731e-01 0.000000000000000000e+00
Cu 1.621505258764346369e+00 7.304938957852455950e-01 0.000000000000000000e+00
Cu 1.621532994571549535e+00 8.334567443503018147e-01 0.000000000000000000e+00
Cu 1.621836273099825476e+00 9.365659756368350797e-01 0.000000000000000000e+00
Cu 1.731110656298247674e+00 1.126530175202404907e-02 0.000000000000000000e+00
Cu 1.731203116228691385e+00 1.142422235790895024e-01 0.000000000000000000e+00
Cu 1.731583624387863729e+00 2.169845139237868425e-01 0.000000000000000000e+00
Cu 1.731980022471480085e+00 3.196035902729701950e-01 0.000000000000000000e+00
Cu 1.732216510083769645e+00 4.222321165322666658e-01 0.000000000000000000e+00
Cu 1.732250135688216064e+00 5.248877059016715529e-01 0.000000000000000000e+00
Cu 1.732079597338438859e+00 6.275223133758117688e-01 0.000000000000000000e+00
Cu 1.731745314739629338e+00 7.301530242057171494e-01 0.000000000000000000e+00
Cu 1.731420877602856345e+00 8.329113761122187709e-01 0.000000000000000000e+00
Cu 1.731376692059926503e+00 9.359071001930050482e-01 0.000000000000000000e+00
Cu 1.840724555576003452e+00 1.152135461138955284e-02 0.000000000000000000e+00
Cu 1.841486367729010754e+00 1.143890579060540119e-01 0.000000000000000000e+00
Cu 1.842369427926666914e+00 2.169050293859161316e-01 0.000000000000000000e+00
Cu 1.842944995425339849e+00 3.194549824755466005e-01 0.000000000000000000e+00
Cu 1.843198675800951758e+00 4.221632679210081673e-01 0.000000000000000000e+00
Cu 1.843228577262127521e+00 5.249301991676408319e-01 0.000000000000000000e+00
Cu 1.843033490003094688e+00 6.276432168040227966e-01 0.000000000000000000e+00
Cu 1.842512981811641026e+00 7.302020441617591562e-01 0.000000000000000000e+00
Cu 1.841679516662679372e+00 8.327298768892948955e-01 0.000000000000000000e+00
Cu 1.840960741394340294e+00 9.356107856712457815e-01 0.000000000000000000e+00
Cu 1.950175842825657924e+00 1.094755446901503164e-02 0.000000000000000000e+00
Cu 1.952338019084599141e+00 1.136862933398346959e-01 0.000000000000000000e+00
Cu 1.953685389455766419e+00 2.162027067824852933e-01 0.000000000000000000e+00
Cu 1.954235364879549630e+00 3.190521404263407801e-01 0.000000000000000000e+00
Cu 1.954457878098953438e+00 4.220276492633403542e-01 0.000000000000000000e+00
Cu 1.954485449500832805e+00 5.250356100139893512e-01 0.000000000000000000e+00
Cu 1.954317043516085484e+00 6.280153198880491505e-01 0.000000000000000000e+00
Cu 1.953818086816888400e+00 7.308723483868946325e-01 0.000000000000000000e+00
Cu 1.952516770005578550e+00 8.333982735117972940e-01 0.000000000000000000e+00
Cu 1.950394709781728020e+00 9.361462796532963315e-01 0.000000000000000000e+00
Cu 2.059080056431668915e+00 7.523622452419218183e-03 0.000000000000000000e+00
Cu 2.063819426424446490e+00 1.114477925190555940e-01 0.000000000000000000e+00
Cu 2.065146183877420327e+00 2.151306967722607377e-01 0.000000000000000000e+00
Cu 2.065713167040616582e+00 3.185713605832941608e-01 0.000000000000000000e+00
Cu 2.065932103913940665e+00 4.218776603270916192e-01 0.000000000000000000e+00
Cu 2.065958202605822969e+00 5.251471207809912389e-01 0.000000000000000000e+00
Cu 2.065790666864815606e+00 6.284580599683642355e-01 0.000000000000000000e+00
Cu 2.065272749680296283e+00 7.319070245418888288e-01 0.000000000000000000e+00
Cu 2.063991268072088214e+00 8.355998569958915656e-01 0.000000000000000000e+00
Cu 2.059292288101322921e+00 9.395328931406764505e-01 0.000000000000000000e+00
