200

Cu 0.000000000000000000e+00 1.298043719646000890e-02 0.000000000000000000e+00
Cu 0.000000000000000000e+00 1.181250891189860597e-01 0.000000000000000000e+00
Cu 0.000000000000000000e+00 2.232890239605460347e-01 0.000000000000000000e+00
Cu 0.000000000000000000e+00 3.284838924701890539e-01 0.000000000000000000e+00
Cu 0.000000000000000000e+00 4.337126774692581788e-01 0.000000000000000000e+00
Cu 0.000000000000000000e+00 5.389739415451588744e-01 0.000000000000000000e+00
Cu 0.000000000000000000e+00 6.442653893804796139e-01 0.000000000000000000e+00
Cu 0.000000000000000000e+00 7.495850110293263979e-01 0.000000000000000000e+00
Cu 0.000000000000000000e+00 8.549296987799166470e-01 0.000000000000000000e+00
Cu 0.000000000000000000e+00 9.602923117162495137e-01 0.000000000000000000e+00
Cu 1.057025478874853153e-01 1.311336121829512029e-02 0.000000000000000000e+00
Cu 1.055842272987629338e-01 1.181922356778467853e-01 0.000000000000000000e+00
Cu 1.054966430830619056e-01 2.233404775242043006e-01 0.000000000000000000e+00
Cu 1.054130518101477620e-01 3.285333903596711624e-01 0.000000000000000000e+00
Cu 1.053318345091657365e-01 4.337639656155041767e-01 0.000000000000000000e+00
Cu 1.052522096393390533e-01 5.390282541165034580e-01 0.000000000000000000e+00
Cu 1.051728735492726413e-01 6.443229663414036246e-01 0.000000000000000000e+00
Cu 1.050915053632559548e-01 7.496467574753741259e-01 0.000000000000000000e+00
Cu 1.050039292023016158e-01 8.550045583241324687e-01 0.000000000000000000e+00
Cu 1.048828554618829456e-01 9.604223102874379636e-01 0.000000000000000000e+00
Cu 2.113895642711614287e-01 1.328491615551920940e-02 0.000000000000000000e+00
Cu 2.111847818688950829e-01 1.183680918243831814e-01 0.000000000000000000e+00
Cu 2.109959743905554241e-01 2.235043300037523328e-01 0.000000000000000000e+00
Cu 2.108228767362749501e-01 3.286946347687514369e-01 0.000000000000000000e+00
Cu 2.106581277777579420e-01 4.339286764160234511e-01 0.000000000000000000e+00
Cu 2.104988500334049051e-01 5.391992640419763783e-01 0.000000000000000000e+00
Cu 2.103413629217825154e-01 6.445014291685334795e-01 0.000000000000000000e+00
Cu 2.101790093623569500e-01 7.498339117090749850e-01 0.000000000000000000e+00
Cu 2.099983257866389341e-01 8.552028171726241412e-01 0.000000000000000000e+00
Cu 2.097903192785010862e-01 9.606110387411902485e-01 0.000000000000000000e+00
Cu 3.170621031052804351e-01 1.354004363894713465e-02 0.000000000000000000e+00
Cu 3.167701817891054872e-01 1.186293792911589512e-01 0.000000000000000000e+00
Cu 3.164895694369674328e-01 2.237703374451470439e-01 0.000000000000000000e+00
Cu 3.162243684376204178e-01 3.289626629401334879e-01 0.000000000000000000e+00
Cu 3.159742726025736581e-01 4.342020143664001020e-01 0.000000000000000000e+00
Cu 3.157359324994418182e-01 5.394806648253016590e-01 0.000000000000000000e+00
Cu 3.155039470339828789e-01 6.447918804029304507e-01 0.000000000000000000e+00
Cu 3.152680384019309057e-01 7.501313069638835263e-01 0.000000000000000000e+00
Cu 3.150151587905381523e-01 8.554964679888854562e-01 0.000000000000000000e+00
Cu 3.147329057642520023e-01 9.608896984509878170e-01 0.000000000000000000e+00
Cu 4.227182915273041686e-01 1.388177927124097100e-02 0.000000000000000000e+00
Cu 4.223364416838959468e-01 1.189791358737703059e-01 0.000000000000000000e+00
Cu 4.219649184436515821e-01 2.241287246825030832e-01 0.000000000000000000e+00
Cu 4.216102526270478212e-01 3.293292444857860990e-01 0.000000000000000000e+00
Cu 4.212757317970990401e-01 4.345758014116772872e-01 0.000000000000000000e+00
Cu 4.209611176891426276e-01 5.398614291857527503e-01 0.000000000000000000e+00
Cu 4.206619838815693346e-01 6.451782248552295762e-01 0.000000000000000000e+00
Cu 4.203682309622928659e-01 7.505181154723121750e-01 0.000000000000000000e+00
Cu 4.200630263506355266e-01 8.558741842736020677e-01 0.000000000000000000e+00
Cu 4.197253321234662993e-01 9.612457666645627397e-01 0.000000000000000000e+00
Cu 5.283570077374553087e-01 1.431193607049778896e-02 0.000000000000000000e+00
Cu 5.278812144647755389e-01 1.194169924035362873e-01 0.000000000000000000e+00
Cu 5.274163840066539155e-01 2.245761072369639177e-01 0.000000000000000000e+00
Cu 5.269735452367735329e-01 3.297864615552368317e-01 0.000000000000000000e+00
Cu 5.265591298770695428e-01 4.350402862383558333e-01 0.000000000000000000e+00
Cu 5.261750030748726381e-01 5.403276125782536798e-01 0.000000000000000000e+00
Cu 5.258194847266540739e-01 6.456403012497958782e-01 0.000000000000000000e+00
Cu 5.254840167248372440e-01 7.509708761249522802e-01 0.000000000000000000e+00
Cu 5.251490964950001894e-01 8.563120785428390835e-01 0.000000000000000000e+00
Cu 5.247836240136014574e-01 9.616561498839321098e-01 0.000000000000000000e+00
Cu 6.339798362120178110e-01 1.483411259006630310e-02 0.000000000000000000e+00
Cu 6.334037530219210899e-01 1.199445596662920693e-01 0.000000000000000000e+00
Cu 6.328404977640051943e-01 2.251102404499484844e-01 0.000000000000000000e+00
Cu 6.323096237211259796e-01 3.303282079797627557e-01 0.000000000000000000e+00
Cu 6.318223973784229397e-01 4.355854609631964469e-01 0.000000000000000000e+00
Cu 6.313826133624867998e-01 5.408658806015673726e-01 0.000000000000000000e+00
Cu 6.309852261246902128e-01 6.461561103515960358e-01 0.000000000000000000e+00
Cu 6.306222057395443059e-01 7.514590250315732467e-01 0.000000000000000000e+00
Cu 6.302774675268002502e-01 8.567724779035038596e-01 0.000000000000000000e+00
Cu 6.299214681833367191e-01 9.620855920723563326e-01 0.000000000000000000e+00
Cu 7.395891249434730641e-01 1.545632295766492283e-02 0.000000000000000000e+00
Cu 7.389061964054707277e-01 1.205686737867254082e-01 0.000000000000000000e+00
Cu 7.382371489321372104e-01 2.257328253785657046e-01 0.000000000000000000e+00
Cu 7.376144668673547677e-01 3.309487013775553321e-01 0.000000000000000000e+00
Cu 7.370648080481578823e-01 4.362016277844686929e-01 0.000000000000000000e+00
Cu 7.365915276503314235e-01 5.414590426434268133e-01 0.000000000000000000e+00
Cu 7.361814000195513463e-01 6.467073579523332505e-01 0.000000000000000000e+00
Cu 7.357960891001233961e-01 7.519474880846076514e-01 0.000000000000000000e+00
Cu 7.354540286910064006e-01 8.572127567753633492e-01 0.000000000000000000e+00
Cu 7.351479518067013386e-01 9.624628758458337874e-01 0.000000000000000000e+00
Cu 8.451836648366048976e-01 1.618665734324426300e-02 0.000000000000000000e+00
Cu 8.443908482725688280e-01 1.213027347104685683e-01 0.000000000000000000e+00
Cu 8.436130962773771280e-01 2.264564380281920697e-01 0.000000000000000000e+00
Cu 8.428892954617386302e-01 3.316478548401220472e-01 0.000000000000000000e+00
Cu 8.422815220528502289e-01 4.368717545467629138e-01 0.000000000000000000e+00
Cu 8.418246861176703622e-01 5.420834853979538126e-01 0.000000000000000000e+00
Cu 8.414249599577878769e-01 6.472509056730695320e-01 0.000000000000000000e+00
Cu 8.410287277334181910e-01 7.524632418010888113e-01 0.000000000000000000e+00
Cu 4.261050902068863167e+00 6.774620444313861345e-01 0.000000000000000000e+00
Cu 4.237572883678311975e+00 7.794899632145666502e-01 0.000000000000000000e+00
Cu 9.507595161112896154e-01 1.703621599332151224e-02 0.000000000000000000e+00
Cu 9.498490307570616187e-01 1.221559601912716730e-01 0.000000000000000000e+00
Cu 9.489749566585645724e-01 2.273126655475365965e-01 0.000000000000000000e+00
Cu 9.481544007842839239e-01 3.324536035283540136e-01 0.000000000000000000e+00
Cu 9.474803495166531642e-01 4.375792713571990400e-01 0.000000000000000000e+00
Cu 9.471359211549248425e-01 5.426254407644438560e-01 0.000000000000000000e+00
Cu 9.467205357616478301e-01 6.477884208536852650e-01 0.000000000000000000e+00
Cu 4.394362096706327492e+00 6.016035470371831062e-01 0.000000000000000000e+00
Cu 4.369014783212493924e+00 7.016887156010976900e-01 0.000000000000000000e+00
Cu 4.348181117258425488e+00 8.005130242139344432e-01 0.000000000000000000e+00
Cu 1.056304363646166422e+00 1.801134142437848390e-02 0.000000000000000000e+00
Cu 1.055273923509843614e+00 1.231496168146231085e-01 0.000000000000000000e+00
Cu 1.054281221169933502e+00 2.282999910539008082e-01 0.000000000000000000e+00
Cu 1.053421452035483208e+00 3.334884459882681007e-01 0.000000000000000000e+00
Cu 4.586444475203252047e+00 3.274369730680695145e-01 0.000000000000000000e+00
Cu 4.550576374579580197e+00 4.252461501074020211e-01 0.000000000000000000e+00
Cu 4.530669990786661216e+00 5.270274764206908102e-01 0.000000000000000000e+00
Cu 4.504471659527557570e+00 6.254855840249234911e-01 0.000000000000000000e+00
Cu 4.483284960701884536e+00 7.229014969186396966e-01 0.000000000000000000e+00
Cu 4.465697678267520843e+00 8.192672671926356509e-01 0.000000000000000000e+00
Cu 1.161811631373344200e+00 1.914123492896891571e-02 0.000000000000000000e+00
Cu 1.160627864759723904e+00 1.242857682310690576e-01 0.000000000000000000e+00
Cu 1.159554530863774691e+00 2.294876100708763134e-01 0.000000000000000000e+00
Cu 4.723939356967206571e+00 2.582485710831490811e-01 0.000000000000000000e+00
Cu 4.692060109474973650e+00 3.567795025329486003e-01 0.000000000000000000e+00
Cu 4.669322393555278339e+00 4.541261273512359198e-01 0.000000000000000000e+00
Cu 4.642185623686374996e+00 5.490041604223852012e-01 0.000000000000000000e+00
Cu 4.621639158557758975e+00 6.458042989733230321e-01 0.000000000000000000e+00
Cu 4.603573382640059997e+00 7.407351231739579545e-01 0.000000000000000000e+00
Cu 4.589044212818124358e+00 8.348330847981482172e-01 0.000000000000000000e+00
Cu 1.267246764919569557e+00 2.042357020158233963e-02 0.000000000000000000e+00
Cu 1.265928074670540138e+00 1.256303138252675422e-01 0.000000000000000000e+00
Cu 4.864934737016597843e+00 1.909568791240274510e-01 0.000000000000000000e+00
Cu 4.833099870780074525e+00 2.874567256345791355e-01 0.000000000000000000e+00
Cu 4.807342622793355780e+00 3.823184583229632394e-01 0.000000000000000000e+00
Cu 4.784436623353165885e+00 4.766619728034582337e-01 0.000000000000000000e+00
Cu 4.763258908214806020e+00 5.703400979016063355e-01 0.000000000000000000e+00
Cu 4.744634574195513821e+00 6.627727706761497029e-01 0.000000000000000000e+00
Cu 4.729463054605588468e+00 7.553483944709554754e-01 0.000000000000000000e+00
Cu 4.717341507973331183e+00 8.473485213863453103e-01 0.000000000000000000e+00
Cu 1.372621131158602292e+00 2.197426135566013516e-02 0.000000000000000000e+00
Cu 5.005983319677916654e+00 1.250680276732479279e-01 0.000000000000000000e+00
Cu 4.975979914406830851e+00 2.205351061084899200e-01 0.000000000000000000e+00
Cu 4.950824788275012267e+00 3.136112929020427598e-01 0.000000000000000000e+00
Cu 4.928550087251640122e+00 4.051493191898681290e-01 0.000000000000000000e+00
Cu 4.908350216855593473e+00 4.961736562734119227e-01 0.000000000000000000e+00
Cu 4.890009516427686442e+00 5.867874278474564109e-01 0.000000000000000000e+00
Cu 4.873795331564543254e+00 6.770408371576213113e-01 0.000000000000000000e+00
Cu 4.860248475302183735e+00 7.671465186595108898e-01 0.000000000000000000e+00
Cu 4.849979611642674548e+00 8.572428439366639452e-01 0.000000000000000000e+00
Cu 5.143424276110401649e+00 5.793777957340964790e-02 0.000000000000000000e+00
Cu 5.118557928186652894e+00 1.534935349419285777e-01 0.000000000000000000e+00
Cu 5.096190112385091453e+00 2.454512055992423281e-01 0.000000000000000000e+00
Cu 5.075841258094308195e+00 3.353156374872376944e-01 0.000000000000000000e+00
Cu 5.056927594025452777e+00 4.240950741034019700e-01 0.000000000000000000e+00
Cu 5.039133290371208496e+00 5.123233856696457478e-01 0.000000000000000000e+00
Cu 5.022634838620937181e+00 6.003722971072715797e-01 0.000000000000000000e+00
Cu 5.007871832724346106e+00 6.884406636150603997e-01 0.000000000000000000e+00
Cu 4.995526453312442605e+00 7.766656618328436901e-01 0.000000000000000000e+00
Cu 4.986388909048068641e+00 8.650480379857221624e-01 0.000000000000000000e+00
Cu 5.257104236158896882e+00 8.120470482424382852e-02 0.000000000000000000e+00
Cu 5.240649832941363329e+00 1.747863959961670210e-01 0.000000000000000000e+00
Cu 5.224130892290150818e+00 2.646841744797540641e-01 0.000000000000000000e+00
Cu 5.207894692999968100e+00 3.524578750491899060e-01 0.000000000000000000e+00
Cu 5.191786685495096698e+00 4.391885148161375763e-01 0.000000000000000000e+00
Cu 5.175887842326626576e+00 5.254769004716161040e-01 0.000000000000000000e+00
Cu 5.160579961344946121e+00 6.116096692200463369e-01 0.000000000000000000e+00
Cu 5.146536536499429104e+00 6.978456047288542630e-01 0.000000000000000000e+00
Cu 5.134675548466584694e+00 7.844318577635941425e-01 0.000000000000000000e+00
Cu 5.126082574814053494e+00 8.714022508191989758e-01 0.000000000000000000e+00
Cu 5.380929433922228888e+00 9.948679356841606813e-02 0.000000000000000000e+00
Cu 5.370394731781929387e+00 1.905836420705206979e-01 0.000000000000000000e+00
Cu 5.359009997661671854e+00 2.788868022224019749e-01 0.000000000000000000e+00
Cu 5.346335380200204490e+00 3.652960205103800706e-01 0.000000000000000000e+00
Cu 5.332450867885081713e+00 4.509362490417974656e-01 0.000000000000000000e+00
Cu 5.317936619936523890e+00 5.362693319510363210e-01 0.000000000000000000e+00
Cu 5.303393065403668949e+00 6.212720725684637291e-01 0.000000000000000000e+00
Cu 5.289468388671270560e+00 7.061016854252866182e-01 0.000000000000000000e+00
Cu 5.277296411127835540e+00 7.912653368012166899e-01 0.000000000000000000e+00
Cu 5.268468807546101473e+00 8.770726995714318575e-01 0.000000000000000000e+00
Cu 5.512625979799445020e+00 1.130638999201952211e-01 0.000000000000000000e+00
Cu 5.507414318006838450e+00 2.019637703011040730e-01 0.000000000000000000e+00
Cu 5.500643035813586046e+00 2.886450536948182988e-01 0.000000000000000000e+00
Cu 5.490730371334039184e+00 3.744330513540496952e-01 0.000000000000000000e+00
Cu 5.478235419863495714e+00 4.601073439000233356e-01 0.000000000000000000e+00
Cu 5.464642684362507552e+00 5.454714371971874920e-01 0.000000000000000000e+00
Cu 5.450749537718547089e+00 6.303666863024300904e-01 0.000000000000000000e+00
Cu 5.436574370409457124e+00 7.143714359264677904e-01 0.000000000000000000e+00
Cu 5.423079804255144687e+00 7.982199403417580275e-01 0.000000000000000000e+00
Cu 5.412742365716503024e+00 8.831526756225608343e-01 0.000000000000000000e+00
Cu 5.649742690600523254e+00 1.205437629119748971e-01 0.000000000000000000e+00
Cu 5.651732519186537296e+00 2.079582253331730968e-01 0.000000000000000000e+00
Cu 5.649399526747729716e+00 2.938884583687392249e-01 0.000000000000000000e+00
Cu 5.640252428330522427e+00 3.809556058026954406e-01 0.000000000000000000e+00
Cu 5.628609080777848384e+00 4.677252547828749107e-01 0.000000000000000000e+00
Cu 5.615565740416393226e+00 5.539171308454281517e-01 0.000000000000000000e+00
Cu 5.601909621786871796e+00 6.394622194334023124e-01 0.000000000000000000e+00
Cu 5.588313754049379689e+00 7.243849395442033545e-01 0.000000000000000000e+00
Cu 5.572063412449545616e+00 8.071022102093577955e-01 0.000000000000000000e+00
Cu 5.557166761900050211e+00 8.915082710171893243e-01 0.000000000000000000e+00
Cu 5.785104122124338666e+00 1.127374983269133074e-01 0.000000000000000000e+00
Cu 5.806790601136501806e+00 2.047837878689975633e-01 0.000000000000000000e+00
Cu 5.802806273720509722e+00 2.966684549880281851e-01 0.000000000000000000e+00
Cu 5.794635343626596047e+00 3.866960302166655428e-01 0.000000000000000000e+00
Cu 5.783169416867151469e+00 4.750422550265370192e-01 0.000000000000000000e+00
Cu 5.770363758005164989e+00 5.622394306856753898e-01 0.000000000000000000e+00
Cu 5.757012724709648310e+00 6.487352500404259814e-01 0.000000000000000000e+00
Cu 5.742594427889873288e+00 7.351959994063551607e-01 0.000000000000000000e+00
Cu 5.728105390965255062e+00 8.230307350712648962e-01 0.000000000000000000e+00
Cu 5.693973279388575115e+00 9.098708017220031863e-01 0.000000000000000000e+00
