200

Cu 0.000000000000000000e+00 6.637286867445310948e-03 0.000000000000000000e+00
Cu 0.000000000000000000e+00 1.105531134472892557e-01 0.000000000000000000e+00
Cu 0.000000000000000000e+00 2.142888903706120507e-01 0.000000000000000000e+00
Cu 0.000000000000000000e+00 3.179558863439068128e-01 0.000000000000000000e+00
Cu 0.000000000000000000e+00 4.216093093911881806e-01 0.000000000000000000e+00
Cu 0.000000000000000000e+00 5.252708045603364795e-01 0.000000000000000000e+00
Cu 0.000000000000000000e+00 6.289548532201603148e-01 0.000000000000000000e+00
Cu 0.000000000000000000e+00 7.326799329294270136e-01 0.000000000000000000e+00
Cu 0.000000000000000000e+00 8.364938584477505934e-01 0.000000000000000000e+00
Cu 0.000000000000000000e+00 9.404954939557478300e-01 0.000000000000000000e+00
Cu 1.094201148661248513e-01 7.572311704058478157e-03 0.000000000000000000e+00
Cu 1.090814406539880183e-01 1.108763818110389682e-01 0.000000000000000000e+00
Cu 1.090261270273015781e-01 2.144285918642064581e-01 0.000000000000000000e+00
Cu 1.089904830773364558e-01 3.180253235897784192e-01 0.000000000000000000e+00
Cu 1.089570459815110554e-01 4.216347144500227628e-01 0.000000000000000000e+00
Cu 1.089242851263873546e-01 5.252594453586566514e-01 0.000000000000000000e+00
Cu 1.088935063958316185e-01 6.289023281113199637e-01 0.000000000000000000e+00
Cu 1.088687342509298134e-01 7.325620950544312615e-01 0.000000000000000000e+00
Cu 1.088684176435952278e-01 8.362045000948077345e-01 0.000000000000000000e+00
Cu 1.091408529659818744e-01 9.396351926691145495e-01 0.000000000000000000e+00
Cu 2.187322224293560824e-01 8.056935950128813612e-03 0.000000000000000000e+00
Cu 2.183899168778870303e-01 1.113422954824742628e-01 0.000000000000000000e+00
Cu 2.181795008740482766e-01 2.147124963545313514e-01 0.000000000000000000e+00
Cu 2.180718773809225963e-01 3.181893327766509572e-01 0.000000000000000000e+00
Cu 2.179896912351858007e-01 4.217120625200712070e-01 0.000000000000000000e+00
Cu 2.179207151484011118e-01 5.252602202475965543e-01 0.000000000000000000e+00
Cu 2.178707540989265612e-01 6.288213666440086724e-01 0.000000000000000000e+00
Cu 2.178566797425101897e-01 7.323661805203580677e-01 0.000000000000000000e+00
Cu 2.179487613072089158e-01 8.358336061648762305e-01 0.000000000000000000e+00
Cu 2.181728048963141875e-01 9.392476231591488922e-01 0.000000000000000000e+00
Cu 3.280525649171414648e-01 8.491732570562057769e-03 0.000000000000000000e+00
Cu 3.277169194690094378e-01 1.117492373787172255e-01 0.000000000000000000e+00
Cu 3.274617750690195783e-01 2.150612055123105604e-01 0.000000000000000000e+00
Cu 3.272843826691170799e-01 3.184319497779287134e-01 0.000000000000000000e+00
Cu 3.271504712527235625e-01 4.218441733396085525e-01 0.000000000000000000e+00
Cu 3.270384362650843868e-01 5.252792107862596094e-01 0.000000000000000000e+00
Cu 3.269686637729595224e-01 6.287294563316522256e-01 0.000000000000000000e+00
Cu 3.269696252213210586e-01 7.321666763595712224e-01 0.000000000000000000e+00
Cu 3.270482830891853765e-01 8.355724767120488172e-01 0.000000000000000000e+00
Cu 3.272017335746162936e-01 9.389615438311904594e-01 0.000000000000000000e+00
Cu 4.374365852150149392e-01 8.922565837251527146e-03 0.000000000000000000e+00
Cu 4.370966188029309918e-01 1.121415442622508696e-01 0.000000000000000000e+00
Cu 4.368288575091376358e-01 2.154092273054816764e-01 0.000000000000000000e+00
Cu 4.366297705155763875e-01 3.187164872560174778e-01 0.000000000000000000e+00
Cu 4.364775294701504493e-01 4.220388675353551888e-01 0.000000000000000000e+00
Cu 4.363257492426965145e-01 5.253384988601668137e-01 0.000000000000000000e+00
Cu 4.361993095997532821e-01 6.286514323772981472e-01 0.000000000000000000e+00
Cu 4.361645676063259924e-01 7.320116386564803346e-01 0.000000000000000000e+00
Cu 4.362003674880564064e-01 8.353896946418297720e-01 0.000000000000000000e+00
Cu 4.362706645724499510e-01 9.387538923120496426e-01 0.000000000000000000e+00
Cu 5.469207462342610127e-01 9.369498506302450028e-03 0.000000000000000000e+00
Cu 5.465678005809333495e-01 1.125320379213785582e-01 0.000000000000000000e+00
Cu 5.462916614827116879e-01 2.157478809606415138e-01 0.000000000000000000e+00
Cu 5.460930377945359959e-01 3.190047509657802371e-01 0.000000000000000000e+00
Cu 5.459584505473985550e-01 4.222762635338980775e-01 0.000000000000000000e+00
Cu 5.458480615264875713e-01 5.255090216951160409e-01 0.000000000000000000e+00
Cu 5.456154306066065551e-01 6.286131606585999565e-01 0.000000000000000000e+00
Cu 5.454154652854538154e-01 7.318571332737919821e-01 0.000000000000000000e+00
Cu 5.454022649239637088e-01 8.352828469817811241e-01 0.000000000000000000e+00
Cu 5.454118276608850291e-01 9.386824256159320701e-01 0.000000000000000000e+00
Cu 6.565418345493763130e-01 9.841583012541739450e-03 0.000000000000000000e+00
Cu 6.561672496175213753e-01 1.129282970270141517e-01 0.000000000000000000e+00
Cu 6.558763537815314182e-01 2.160743909951375885e-01 0.000000000000000000e+00
Cu 6.556753538166083528e-01 3.192708300814267042e-01 0.000000000000000000e+00
Cu 6.555657787140307668e-01 4.225030489700145053e-01 0.000000000000000000e+00
Cu 6.555197460506467788e-01 5.257381262488218798e-01 0.000000000000000000e+00
Cu 6.554831638285116835e-01 6.288874900671763690e-01 0.000000000000000000e+00
Cu 6.547900566340181250e-01 7.315661852300361367e-01 0.000000000000000000e+00
Cu 6.543534251096494447e-01 8.351867981181643197e-01 0.000000000000000000e+00
Cu 6.548052414069650551e-01 9.387902219692855210e-01 0.000000000000000000e+00
Cu 7.663375736880062572e-01 1.034835587711789053e-02 0.000000000000000000e+00
Cu 7.659326515088820120e-01 1.133389684673234421e-01 0.000000000000000000e+00
Cu 7.656178705081766456e-01 2.163925609362939428e-01 0.000000000000000000e+00
Cu 7.654034318932009251e-01 3.195025248064655710e-01 0.000000000000000000e+00
Cu 7.652956920398354956e-01 4.226647587496543679e-01 0.000000000000000000e+00
Cu 7.653023333241926185e-01 5.258808761906641482e-01 0.000000000000000000e+00
Cu 7.653545387357399976e-01 6.291559941538070744e-01 0.000000000000000000e+00
Cu 7.655922566304171895e-01 7.324782016408417640e-01 0.000000000000000000e+00
Cu 7.619249091560383880e-01 8.343576759450368474e-01 0.000000000000000000e+00
Cu 7.651794071252335794e-01 9.380622742912978484e-01 0.000000000000000000e+00
Cu 8.763450012220468377e-01 1.090098479964990257e-02 0.000000000000000000e+00
Cu 8.759024049486758834e-01 1.137755684814707735e-01 0.000000000000000000e+00
Cu 8.755579506054802508e-01 2.167118124814519931e-01 0.000000000000000000e+00
Cu 8.753228298515598471e-01 3.197008837487699262e-01 0.000000000000000000e+00
Cu 8.752088870240432028e-01 4.227387033944303707e-01 0.000000000000000000e+00
Cu 8.752181718063636318e-01 5.258281713414736380e-01 0.000000000000000000e+00
Cu 8.754177058553892499e-01 6.289762016069689876e-01 0.000000000000000000e+00
Cu 8.756514999255963216e-01 7.321675923366427474e-01 0.000000000000000000e+00
Cu 8.799944977099822818e-01 8.338719380115283686e-01 0.000000000000000000e+00
Cu 8.775318984389198773e-01 9.374596854727712536e-01 0.000000000000000000e+00
Cu 9.865978899849167094e-01 1.151111970148532143e-02 0.000000000000000000e+00
Cu 9.861139677219168398e-01 1.142513113587414059e-01 0.000000000000000000e+00
Cu 9.857408850765744246e-01 2.170447374202388313e-01 0.000000000000000000e+00
Cu 9.854912669239926926e-01 3.198749462229549811e-01 0.000000000000000000e+00
Cu 9.853803257323447973e-01 4.227275566166474596e-01 0.000000000000000000e+00
Cu 9.854453956483224530e-01 5.255756105713788040e-01 0.000000000000000000e+00
Cu 9.857368842400263675e-01 6.283377668655732995e-01 0.000000000000000000e+00
Cu 9.869088797999651108e-01 7.306313732777254266e-01 0.000000000000000000e+00
Cu 9.880176362893245967e-01 8.338821609233200149e-01 0.000000000000000000e+00
Cu 9.884139809620188233e-01 9.371245867992172851e-01 0.000000000000000000e+00
Cu 1.097123610615677869e+00 1.218903891751694710e-02 0.000000000000000000e+00
Cu 1.096600965419965101e+00 1.147798045983743631e-01 0.000000000000000000e+00
Cu 1.096209969873947587e+00 2.174064951488999253e-01 0.000000000000000000e+00
Cu 1.095962517873762643e+00 3.200417398489596721e-01 0.000000000000000000e+00
Cu 1.095883385450652447e+00 4.226599711942186643e-01 0.000000000000000000e+00
Cu 1.096017169998176222e+00 5.252237006033957378e-01 0.000000000000000000e+00
Cu 1.096507885863079457e+00 6.276654767757872122e-01 0.000000000000000000e+00
Cu 1.097188554635343483e+00 7.302716680814913541e-01 0.000000000000000000e+00
Cu 1.097889252026602369e+00 8.330886003873217982e-01 0.000000000000000000e+00
Cu 1.098759444775705196e+00 9.358870571688093776e-01 0.000000000000000000e+00
Cu 1.207939042005044428e+00 1.294113936586220245e-02 0.000000000000000000e+00
Cu 1.207389673236332950e+00 1.153733669918783206e-01 0.000000000000000000e+00
Cu 1.207001971902535331e+00 2.178151105148550537e-01 0.000000000000000000e+00
Cu 1.206780458890873708e+00 3.202295147228911842e-01 0.000000000000000000e+00
Cu 1.206742299335571200e+00 4.225952044045154787e-01 0.000000000000000000e+00
Cu 1.206924786827762608e+00 5.249085064192217098e-01 0.000000000000000000e+00
Cu 1.207299913457864138e+00 6.272543207968497292e-01 0.000000000000000000e+00
Cu 1.207804965657064189e+00 7.297024400437417402e-01 0.000000000000000000e+00
Cu 1.208461175325654446e+00 8.322257748737477145e-01 0.000000000000000000e+00
Cu 1.209300156118696679e+00 9.347641249741011071e-01 0.000000000000000000e+00
Cu 1.319046118850671467e+00 1.376551305728187374e-02 0.000000000000000000e+00
Cu 1.318495316033197806e+00 1.160386483226648613e-01 0.000000000000000000e+00
Cu 1.318144628207218449e+00 2.182868982933225954e-01 0.000000000000000000e+00
Cu 1.317975205333977717e+00 3.204695200350635154e-01 0.000000000000000000e+00
Cu 1.317976213966696175e+00 4.225837442521754861e-01 0.000000000000000000e+00
Cu 1.318129209213690478e+00 5.246771105993683904e-01 0.000000000000000000e+00
Cu 1.318411139051843817e+00 6.268174602520742988e-01 0.000000000000000000e+00
Cu 1.318827706181984638e+00 7.290420861881442560e-01 0.000000000000000000e+00
Cu 1.319411672426867632e+00 8.313467838382794239e-01 0.000000000000000000e+00
Cu 1.320184388707133838e+00 9.337017476657061277e-01 0.000000000000000000e+00
Cu 1.430428437904921912e+00 1.464440683658218244e-02 0.000000000000000000e+00
Cu 1.429920798581105545e+00 1.167672973144774917e-01 0.000000000000000000e+00
Cu 1.429658078869794791e+00 2.188228402751049850e-01 0.000000000000000000e+00
Cu 1.429580142291834166e+00 3.207714912158454168e-01 0.000000000000000000e+00
Cu 1.429626355910160074e+00 4.226308113347042039e-01 0.000000000000000000e+00
Cu 1.429749578460175474e+00 5.244645873194306862e-01 0.000000000000000000e+00
Cu 1.429941654097016679e+00 6.263491522962789659e-01 0.000000000000000000e+00
Cu 1.430239881497144427e+00 7.283383830650456137e-01 0.000000000000000000e+00
Cu 1.430703759619940341e+00 8.304463419433883997e-01 0.000000000000000000e+00
Cu 1.431392059621041213e+00 9.326374706713512763e-01 0.000000000000000000e+00
Cu 1.542050108971869449e+00 1.553360169765055990e-02 0.000000000000000000e+00
Cu 1.541659471966280615e+00 1.175223663006187830e-01 0.000000000000000000e+00
Cu 1.541562908546629140e+00 2.193885120341176331e-01 0.000000000000000000e+00
Cu 1.541640715806945616e+00 3.211026774723500510e-01 0.000000000000000000e+00
Cu 1.541772508266465502e+00 4.227024917257822256e-01 0.000000000000000000e+00
Cu 1.541875469471524207e+00 5.242667984300248829e-01 0.000000000000000000e+00
Cu 1.541945992562682610e+00 6.258855717044782274e-01 0.000000000000000000e+00
Cu 1.542059685235815270e+00 7.276340289662918126e-01 0.000000000000000000e+00
Cu 1.542330960905998749e+00 8.295463361727691831e-01 0.000000000000000000e+00
Cu 1.542876258596552752e+00 9.315914218566613281e-01 0.000000000000000000e+00
Cu 1.653854763902693259e+00 1.634892226442151084e-02 0.000000000000000000e+00
Cu 1.653703327930931444e+00 1.182225095490138655e-01 0.000000000000000000e+00
Cu 1.653891215284581051e+00 2.198938649870116058e-01 0.000000000000000000e+00
Cu 1.654211226072513696e+00 3.213757705549555310e-01 0.000000000000000000e+00
Cu 1.654472341215129427e+00 4.227545537633283779e-01 0.000000000000000000e+00
Cu 1.654561299878756442e+00 5.241111071802379007e-01 0.000000000000000000e+00
Cu 1.654475322698497841e+00 6.255040533581666118e-01 0.000000000000000000e+00
Cu 1.654322023813145970e+00 7.270128748870658963e-01 0.000000000000000000e+00
Cu 1.654287237955274437e+00 8.287213390124020806e-01 0.000000000000000000e+00
Cu 1.654574484258947376e+00 9.306392518195403252e-01 0.000000000000000000e+00
Cu 1.765757486239996066e+00 1.694419423077469372e-02 0.000000000000000000e+00
Cu 1.766060108993643629e+00 1.187179327422880071e-01 0.000000000000000000e+00
Cu 1.766705551609934810e+00 2.201686886482528971e-01 0.000000000000000000e+00
Cu 1.767335234472105387e+00 3.214454883699284782e-01 0.000000000000000000e+00
Cu 1.767717643118731141e+00 4.227282976770178058e-01 0.000000000000000000e+00
Cu 1.767796901956622868e+00 5.240456628602954137e-01 0.000000000000000000e+00
Cu 1.767570357032365536e+00 6.253391361845308527e-01 0.000000000000000000e+00
Cu 1.767088849355182623e+00 7.266363227560436178e-01 0.000000000000000000e+00
Cu 1.766579793444602586e+00 8.281152389096259059e-01 0.000000000000000000e+00
Cu 1.766398748589871781e+00 9.299220900267682888e-01 0.000000000000000000e+00
Cu 1.877613142990446793e+00 1.704756174084137016e-02 0.000000000000000000e+00
Cu 1.878799458552402379e+00 1.187260497563021877e-01 0.000000000000000000e+00
Cu 1.880116941597043345e+00 2.199244758789722920e-01 0.000000000000000000e+00
Cu 1.880991598544960341e+00 3.211549607274304385e-01 0.000000000000000000e+00
Cu 1.881400290522397878e+00 4.225883295076276469e-01 0.000000000000000000e+00
Cu 1.881473208392623331e+00 5.240968510051738916e-01 0.000000000000000000e+00
Cu 1.881207800464290480e+00 6.255386190910671163e-01 0.000000000000000000e+00
Cu 1.880468999301933675e+00 7.267848821315742169e-01 0.000000000000000000e+00
Cu 1.879276063450448619e+00 8.280044713129068867e-01 0.000000000000000000e+00
Cu 1.878201171200348574e+00 9.297068008685985818e-01 0.000000000000000000e+00
Cu 1.989135134016743356e+00 1.603572155607107738e-02 0.000000000000000000e+00
Cu 1.992184104681285151e+00 1.176002113342413113e-01 0.000000000000000000e+00
Cu 1.994141018113051667e+00 2.188420874722467602e-01 0.000000000000000000e+00
Cu 1.994991076503816796e+00 3.205209673700404882e-01 0.000000000000000000e+00
Cu 1.995366372750530193e+00 4.223571438206149553e-01 0.000000000000000000e+00
Cu 1.995435410753075400e+00 5.242337826229200859e-01 0.000000000000000000e+00
Cu 1.995195951500102316e+00 6.260777280051952332e-01 0.000000000000000000e+00
Cu 1.994474990129672332e+00 7.277706428638223146e-01 0.000000000000000000e+00
Cu 1.992636164150935807e+00 8.290303103034023513e-01 0.000000000000000000e+00
Cu 1.989692193664893916e+00 9.306125220236446394e-01 0.000000000000000000e+00
Cu 2.099692013962696446e+00 1.119995678519242720e-02 0.000000000000000000e+00
Cu 2.106330266275600938e+00 1.144007919963737491e-01 0.000000000000000000e+00
Cu 2.108263881614050206e+00 2.172629359924893588e-01 0.000000000000000000e+00
Cu 2.109153980152655095e+00 3.197787073947104819e-01 0.000000000000000000e+00
Cu 2.109528666828901500e+00 4.221043409473015928e-01 0.000000000000000000e+00
Cu 2.109595249228186198e+00 5.243789680414175924e-01 0.000000000000000000e+00
Cu 2.109351965885159164e+00 6.267136712526203413e-01 0.000000000000000000e+00
Cu 2.108588068402272864e+00 7.292457789488453468e-01 0.000000000000000000e+00
Cu 2.106771993317043012e+00 8.321277156025518318e-01 0.000000000000000000e+00
Cu 2.100239649945276899e+00 9.353478221288411554e-01 0.000000000000000000e+00
