200

Cu 0.000000000000000000e+00 1.260148267370345826e-02 0.000000000000000000e+00
Cu 0.000000000000000000e+00 1.177179248301464115e-01 0.000000000000000000e+00
Cu 0.000000000000000000e+00 2.228581998652553464e-01 0.000000000000000000e+00
Cu 0.000000000000000000e+00 3.280367190961604451e-01 0.000000000000000000e+00
Cu 0.000000000000000000e+00 4.332571856842234448e-01 0.000000000000000000e+00
Cu 0.000000000000000000e+00 5.385178365718209514e-01 0.000000000000000000e+00
Cu 0.000000000000000000e+00 6.438158491373854320e-01 0.000000000000000000e+00
Cu 0.000000000000000000e+00 7.491487551394541144e-01 0.000000000000000000e+00
Cu 0.000000000000000000e+00 8.545127263399310280e-01 0.000000000000000000e+00
Cu 0.000000000000000000e+00 9.598989281010067431e-01 0.000000000000000000e+00
Cu 1.058066814111401355e-01 1.276595339548803471e-02 0.000000000000000000e+00
Cu 1.056603499177050237e-01 1.178010679656513460e-01 0.000000000000000000e+00
Cu 1.055519929295649362e-01 2.229219223165797847e-01 0.000000000000000000e+00
Cu 1.054485613038879666e-01 3.280980113897322692e-01 0.000000000000000000e+00
Cu 1.053480578369566517e-01 4.333206834337249291e-01 0.000000000000000000e+00
Cu 1.052495137399253877e-01 5.385850683511409498e-01 0.000000000000000000e+00
Cu 1.051513137845185991e-01 6.438871126606052764e-01 0.000000000000000000e+00
Cu 1.050505834898592256e-01 7.492251713931324941e-01 0.000000000000000000e+00
Cu 1.049421463960134027e-01 8.546053731593693525e-01 0.000000000000000000e+00
Cu 1.047921778730145220e-01 9.600598867736563902e-01 0.000000000000000000e+00
Cu 2.115941334807356911e-01 1.297844365641778741e-02 0.000000000000000000e+00
Cu 2.113408379890481525e-01 1.180188027547370982e-01 0.000000000000000000e+00
Cu 2.111072710863464430e-01 2.231247839477290829e-01 0.000000000000000000e+00
Cu 2.108930984831558775e-01 3.282976247787037227e-01 0.000000000000000000e+00
Cu 2.106892272393932897e-01 4.335245674641794444e-01 0.000000000000000000e+00
Cu 2.104921011969503319e-01 5.387967335266489188e-01 0.000000000000000000e+00
Cu 2.102971638426940348e-01 6.441079913681070357e-01 0.000000000000000000e+00
Cu 2.100961684483567127e-01 7.494567996746367422e-01 0.000000000000000000e+00
Cu 2.098724308402449834e-01 8.548507374383116364e-01 0.000000000000000000e+00
Cu 2.096148185203645653e-01 9.602933820486388994e-01 0.000000000000000000e+00
Cu 3.173636439030861345e-01 1.329443522962246889e-02 0.000000000000000000e+00
Cu 3.170025420880476230e-01 1.183423531368624909e-01 0.000000000000000000e+00
Cu 3.166553903910584444e-01 2.234541102786759270e-01 0.000000000000000000e+00
Cu 3.163272596132502557e-01 3.286294098261818841e-01 0.000000000000000000e+00
Cu 3.160177719844434741e-01 4.338628927034720029e-01 0.000000000000000000e+00
Cu 3.157227900931300901e-01 5.391450154778599790e-01 0.000000000000000000e+00
Cu 3.154356313278094959e-01 6.444674606682437856e-01 0.000000000000000000e+00
Cu 3.151435697592999685e-01 7.498248504554454463e-01 0.000000000000000000e+00
Cu 3.148304523806849664e-01 8.552141198356009166e-01 0.000000000000000000e+00
Cu 3.144809261116633392e-01 9.606381573622099213e-01 0.000000000000000000e+00
Cu 4.231128747480104035e-01 1.371769922174998109e-02 0.000000000000000000e+00
Cu 4.226405080410190473e-01 1.187754481874859769e-01 0.000000000000000000e+00
Cu 4.221808643269102657e-01 2.238978021673815877e-01 0.000000000000000000e+00
Cu 4.217420220144083576e-01 3.290831744265650949e-01 0.000000000000000000e+00
Cu 4.213280511971176368e-01 4.343255266277487592e-01 0.000000000000000000e+00
Cu 4.209386618690563187e-01 5.396162524984793318e-01 0.000000000000000000e+00
Cu 4.205683820487685076e-01 6.449455835593890241e-01 0.000000000000000000e+00
Cu 4.202047178468437116e-01 7.503035303479118623e-01 0.000000000000000000e+00
Cu 4.198268400683391466e-01 8.556815217165266718e-01 0.000000000000000000e+00
Cu 4.194087110439945754e-01 9.610787144999950460e-01 0.000000000000000000e+00
Cu 5.288404240095680997e-01 1.425047352312546443e-02 0.000000000000000000e+00
Cu 5.282518134996972980e-01 1.193176244077623072e-01 0.000000000000000000e+00
Cu 5.276766973134502381e-01 2.244516538801948624e-01 0.000000000000000000e+00
Cu 5.271287276325186122e-01 3.296491079164063920e-01 0.000000000000000000e+00
Cu 5.266158718315134823e-01 4.349003911928540633e-01 0.000000000000000000e+00
Cu 5.261404481807897549e-01 5.401931780067100730e-01 0.000000000000000000e+00
Cu 5.257003865193440317e-01 6.455174009428901183e-01 0.000000000000000000e+00
Cu 5.252851055126402935e-01 7.508638029892957810e-01 0.000000000000000000e+00
Cu 5.248704758564670669e-01 8.562233812754909135e-01 0.000000000000000000e+00
Cu 5.244180165242122715e-01 9.615864957469956176e-01 0.000000000000000000e+00
Cu 6.345482340345277583e-01 1.489722107958847686e-02 0.000000000000000000e+00
Cu 6.338355141236510226e-01 1.199708735249475217e-01 0.000000000000000000e+00
Cu 6.331385776478376526e-01 2.251128753950147054e-01 0.000000000000000000e+00
Cu 6.324816378815462103e-01 3.303196371449450552e-01 0.000000000000000000e+00
Cu 6.318786632802151360e-01 4.355750929118711312e-01 0.000000000000000000e+00
Cu 6.313343694028248354e-01 5.408592932461372405e-01 0.000000000000000000e+00
Cu 6.308425291847324923e-01 6.461556980555803742e-01 0.000000000000000000e+00
Cu 6.303931978672021597e-01 7.514678511240510117e-01 0.000000000000000000e+00
Cu 6.299664696621147808e-01 8.567930790331435009e-01 0.000000000000000000e+00
Cu 6.295257993551828246e-01 9.621178907865904906e-01 0.000000000000000000e+00
Cu 7.402391771859776481e-01 1.566787561175724333e-02 0.000000000000000000e+00
Cu 7.393942292970039354e-01 1.207436711899420173e-01 0.000000000000000000e+00
Cu 7.385663467172481900e-01 2.258835699073843406e-01 0.000000000000000000e+00
Cu 7.377957581322757141e-01 3.310875897075367114e-01 0.000000000000000000e+00
Cu 7.371155159712752258e-01 4.363376224121683911e-01 0.000000000000000000e+00
Cu 7.365298234789371401e-01 5.415933385747776496e-01 0.000000000000000000e+00
Cu 7.360223066532338709e-01 6.468378632438015474e-01 0.000000000000000000e+00
Cu 7.355455015409287922e-01 7.520722896786721234e-01 0.000000000000000000e+00
Cu 7.351221582136496790e-01 8.573378907468860444e-01 0.000000000000000000e+00
Cu 7.347433622892274308e-01 9.625847790586534725e-01 0.000000000000000000e+00
Cu 8.459117094385933955e-01 1.657246387272612309e-02 0.000000000000000000e+00
Cu 8.449307572831893376e-01 1.216526211798723556e-01 0.000000000000000000e+00
Cu 8.439683405085977030e-01 2.267793431144584371e-01 0.000000000000000000e+00
Cu 8.430725803659906425e-01 3.319528522663913739e-01 0.000000000000000000e+00
Cu 8.423204324931341525e-01 4.371668871732963257e-01 0.000000000000000000e+00
Cu 8.417552468410809396e-01 5.423661131690280524e-01 0.000000000000000000e+00
Cu 8.412607948401181757e-01 6.475105124431581594e-01 0.000000000000000000e+00
Cu 8.407705069564314071e-01 7.527105326634189186e-01 0.000000000000000000e+00
Cu 4.054755280676775264e+00 6.785012643132367627e-01 0.000000000000000000e+00
Cu 4.031453936984078723e+00 7.805768136279032099e-01 0.000000000000000000e+00
Cu 9.515608869309835072e-01 1.762471532532021781e-02 0.000000000000000000e+00
Cu 9.504342939610244123e-01 1.227091245500301492e-01 0.000000000000000000e+00
Cu 9.493526424592263480e-01 2.278393297913687554e-01 0.000000000000000000e+00
Cu 9.483372170703779913e-01 3.329501407403323565e-01 0.000000000000000000e+00
Cu 9.475030540417727076e-01 4.380423547388367367e-01 0.000000000000000000e+00
Cu 9.470775365460607498e-01 5.430367791044267145e-01 0.000000000000000000e+00
Cu 9.465636639364590765e-01 6.481757187071606197e-01 0.000000000000000000e+00
Cu 4.187810110118840079e+00 6.023780725236728140e-01 0.000000000000000000e+00
Cu 4.162671474367674485e+00 7.025481605420826892e-01 0.000000000000000000e+00
Cu 4.141968220200680229e+00 8.014658296169159257e-01 0.000000000000000000e+00
Cu 1.057171401610303985e+00 1.883245916145890111e-02 0.000000000000000000e+00
Cu 1.055896288872780309e+00 1.239394629140125742e-01 0.000000000000000000e+00
Cu 1.054667816513650713e+00 2.290615573030158891e-01 0.000000000000000000e+00
Cu 1.053603710323968601e+00 3.342311558202521460e-01 0.000000000000000000e+00
Cu 4.379068573571365697e+00 3.277152099327527157e-01 0.000000000000000000e+00
Cu 4.343555408135213902e+00 4.256740431266732294e-01 0.000000000000000000e+00
Cu 4.323800204891506738e+00 5.275080957295968931e-01 0.000000000000000000e+00
Cu 4.297831819355840466e+00 6.260847695517852696e-01 0.000000000000000000e+00
Cu 4.276787014450467161e+00 7.236205601035811119e-01 0.000000000000000000e+00
Cu 4.259288585640481628e+00 8.201175971429983669e-01 0.000000000000000000e+00
Cu 1.162734971607390477e+00 2.023177205114571123e-02 0.000000000000000000e+00
Cu 1.161270063291736321e+00 1.253460774081346374e-01 0.000000000000000000e+00
Cu 1.159941582495027657e+00 2.305316538732065934e-01 0.000000000000000000e+00
Cu 4.516268143988337869e+00 2.581578133064221792e-01 0.000000000000000000e+00
Cu 4.484677511023419605e+00 3.568149181560508754e-01 0.000000000000000000e+00
Cu 4.462096859216764244e+00 4.542789071169438531e-01 0.000000000000000000e+00
Cu 4.435197764121842745e+00 5.493324135327015689e-01 0.000000000000000000e+00
Cu 4.414791313729620192e+00 6.462699252143927486e-01 0.000000000000000000e+00
Cu 4.396831348151433616e+00 7.413619450435394720e-01 0.000000000000000000e+00
Cu 4.382355995336546961e+00 8.356222085658311372e-01 0.000000000000000000e+00
Cu 1.268208768776549089e+00 2.181970668388068593e-02 0.000000000000000000e+00
Cu 1.266576599037595008e+00 1.270105056566059876e-01 0.000000000000000000e+00
Cu 4.656921536406726680e+00 1.904894310574603289e-01 0.000000000000000000e+00
Cu 4.625355651563290316e+00 2.871390906400305698e-01 0.000000000000000000e+00
Cu 4.599784255297102220e+00 3.821591936409819978e-01 0.000000000000000000e+00
Cu 4.577041086353776933e+00 4.766728098441677108e-01 0.000000000000000000e+00
Cu 4.556005015314896767e+00 5.705288125844887315e-01 0.000000000000000000e+00
Cu 4.537497025301140852e+00 6.631588672740890145e-01 0.000000000000000000e+00
Cu 4.522396303167246501e+00 7.559249712978975966e-01 0.000000000000000000e+00
Cu 4.510307863885882895e+00 8.481155469447856365e-01 0.000000000000000000e+00
Cu 1.373606254631264179e+00 2.373953346066597428e-02 0.000000000000000000e+00
Cu 4.797633613895740723e+00 1.242272397337378653e-01 0.000000000000000000e+00
Cu 4.767855568475380501e+00 2.198549507004375347e-01 0.000000000000000000e+00
Cu 4.742861501572803284e+00 3.131127526462944566e-01 0.000000000000000000e+00
Cu 4.720725975904562333e+00 4.048540675163836977e-01 0.000000000000000000e+00
Cu 4.700647551812815905e+00 4.960859216885631917e-01 0.000000000000000000e+00
Cu 4.682413247231301590e+00 5.869137198600752336e-01 0.000000000000000000e+00
Cu 4.666283861505728048e+00 6.773860499470034657e-01 0.000000000000000000e+00
Cu 4.652793361915313675e+00 7.677106538359473875e-01 0.000000000000000000e+00
Cu 4.642542312112949432e+00 8.580197599138261744e-01 0.000000000000000000e+00
Cu 4.934797027767529265e+00 5.675497624324055829e-02 0.000000000000000000e+00
Cu 4.910059096171618620e+00 1.524693721554551129e-01 0.000000000000000000e+00
Cu 4.887798033795982988e+00 2.446275226212754617e-01 0.000000000000000000e+00
Cu 4.867551532312351270e+00 3.347157345825783614e-01 0.000000000000000000e+00
Cu 4.848734846551544742e+00 4.237255778425559893e-01 0.000000000000000000e+00
Cu 4.831033665159493395e+00 5.121891126413999906e-01 0.000000000000000000e+00
Cu 4.814618868378127026e+00 6.004757539722453963e-01 0.000000000000000000e+00
Cu 4.799924528983756211e+00 6.887832145164870523e-01 0.000000000000000000e+00
Cu 4.787623936952825510e+00 7.772454386480985855e-01 0.000000000000000000e+00
Cu 4.778497198212343200e+00 8.658599259790812352e-01 0.000000000000000000e+00
Cu 5.048289913652550531e+00 7.993344907495360252e-02 0.000000000000000000e+00
Cu 5.031838359883540335e+00 1.736909403862263723e-01 0.000000000000000000e+00
Cu 5.015360938162522153e+00 2.638107787324007192e-01 0.000000000000000000e+00
Cu 4.999182922095537940e+00 3.518233126497851138e-01 0.000000000000000000e+00
Cu 4.983143812069338097e+00 4.387999319983056923e-01 0.000000000000000000e+00
Cu 4.967317016839706056e+00 5.253374222445879038e-01 0.000000000000000000e+00
Cu 4.952078633973949984e+00 6.117217469636049287e-01 0.000000000000000000e+00
Cu 4.938094875723288091e+00 6.982102052552683347e-01 0.000000000000000000e+00
Cu 4.926273956513915309e+00 7.850474593918809196e-01 0.000000000000000000e+00
Cu 4.917688723387598770e+00 8.722652396607566416e-01 0.000000000000000000e+00
Cu 5.171755557030350836e+00 9.818622480090671845e-02 0.000000000000000000e+00
Cu 5.161166448755782454e+00 1.894934909929185951e-01 0.000000000000000000e+00
Cu 5.149773350197801136e+00 2.780249877278446746e-01 0.000000000000000000e+00
Cu 5.137124586950645444e+00 3.646772036523667215e-01 0.000000000000000000e+00
Cu 5.123286471857898761e+00 4.505674539710720627e-01 0.000000000000000000e+00
Cu 5.108828911134507322e+00 5.361541659517221614e-01 0.000000000000000000e+00
Cu 5.094345544470979981e+00 6.214143926036362897e-01 0.000000000000000000e+00
Cu 5.080477485110128200e+00 7.065039326634195982e-01 0.000000000000000000e+00
Cu 5.068347132100895713e+00 7.919276010278909483e-01 0.000000000000000000e+00
Cu 5.059528375093782948e+00 8.779943086938259977e-01 0.000000000000000000e+00
Cu 5.302972094732345987e+00 1.117757837289978934e-01 0.000000000000000000e+00
Cu 5.297677509123659867e+00 2.009121823090632142e-01 0.000000000000000000e+00
Cu 5.290862857761147175e+00 2.878292271473714692e-01 0.000000000000000000e+00
Cu 5.280946558105720889e+00 3.738603152555866060e-01 0.000000000000000000e+00
Cu 5.268482193205040964e+00 4.597820111193395842e-01 0.000000000000000000e+00
Cu 5.254935257640331869e+00 5.453989003235957256e-01 0.000000000000000000e+00
Cu 5.241093886389042389e+00 6.305499498611731868e-01 0.000000000000000000e+00
Cu 5.226980547371919528e+00 7.148188449688402946e-01 0.000000000000000000e+00
Cu 5.213537235532318626e+00 7.989321435534412208e-01 0.000000000000000000e+00
Cu 5.203215703554959326e+00 8.841309678189893662e-01 0.000000000000000000e+00
Cu 5.439529132400497069e+00 1.193026340915472883e-01 0.000000000000000000e+00
Cu 5.441414975710760160e+00 2.069644720996024201e-01 0.000000000000000000e+00
Cu 5.438981338304510693e+00 2.931425627027354208e-01 0.000000000000000000e+00
Cu 5.429824831508271998e+00 3.804446223443637698e-01 0.000000000000000000e+00
Cu 5.418196620650818751e+00 4.674553309998641382e-01 0.000000000000000000e+00
Cu 5.405191802807779666e+00 5.538942895401731681e-01 0.000000000000000000e+00
Cu 5.391590248587077028e+00 6.396925831530994033e-01 0.000000000000000000e+00
Cu 5.378043887446556148e+00 7.248678023771368828e-01 0.000000000000000000e+00
Cu 5.361892862307794161e+00 8.078659800600050955e-01 0.000000000000000000e+00
Cu 5.347024873824331337e+00 8.925333477409266303e-01 0.000000000000000000e+00
Cu 5.574407933698576123e+00 1.116001683139140888e-01 0.000000000000000000e+00
Cu 5.595715553949074383e+00 2.039065283244978211e-01 0.000000000000000000e+00
Cu 5.591682619650412356e+00 2.960002589234855264e-01 0.000000000000000000e+00
Cu 5.583475536429899577e+00 3.862493925627313307e-01 0.000000000000000000e+00
Cu 5.572026729102912412e+00 4.748300942793320378e-01 0.000000000000000000e+00
Cu 5.559258771616632622e+00 5.622685482840331650e-01 0.000000000000000000e+00
Cu 5.545955226016553219e+00 6.490104013217570245e-01 0.000000000000000000e+00
Cu 5.531612829772434736e+00 7.357207643834322575e-01 0.000000000000000000e+00
Cu 5.517158956179727625e+00 8.237838926028624442e-01 0.000000000000000000e+00
Cu 5.483321463995133982e+00 9.109181725011539221e-01 0.000000000000000000e+00
