200

Cu 0.000000000000000000e+00 8.291217081752679310e-03 0.000000000000000000e+00
Cu 0.000000000000000000e+00 1.118850123967504995e-01 0.000000000000000000e+00
Cu 0.000000000000000000e+00 2.152499626803336397e-01 0.000000000000000000e+00
Cu 0.000000000000000000e+00 3.185240657023892252e-01 0.000000000000000000e+00
Cu 0.000000000000000000e+00 4.217773578955210656e-01 0.000000000000000000e+00
Cu 0.000000000000000000e+00 5.250388609763454451e-01 0.000000000000000000e+00
Cu 0.000000000000000000e+00 6.283289010268174879e-01 0.000000000000000000e+00
Cu 0.000000000000000000e+00 7.316726693643472723e-01 0.000000000000000000e+00
Cu 0.000000000000000000e+00 8.351313363682262292e-01 0.000000000000000000e+00
Cu 0.000000000000000000e+00 9.388281800960521783e-01 0.000000000000000000e+00
Cu 1.103638346658988439e-01 9.427207487681818487e-03 0.000000000000000000e+00
Cu 1.099614328061066931e-01 1.122767384495940435e-01 0.000000000000000000e+00
Cu 1.099008884751858928e-01 2.154183929871682779e-01 0.000000000000000000e+00
Cu 1.098619295495489451e-01 3.186077224097859650e-01 0.000000000000000000e+00
Cu 1.098238256201560098e-01 4.218083196422673375e-01 0.000000000000000000e+00
Cu 1.097845893502989445e-01 5.250259511307675542e-01 0.000000000000000000e+00
Cu 1.097458268819725968e-01 6.282666497954675355e-01 0.000000000000000000e+00
Cu 1.097125318431100005e-01 7.315314606361691396e-01 0.000000000000000000e+00
Cu 1.097066113734582599e-01 8.347810898506349275e-01 0.000000000000000000e+00
Cu 1.100301067069485716e-01 9.377818988251188648e-01 0.000000000000000000e+00
Cu 2.205915690826506237e-01 1.000622626598616366e-02 0.000000000000000000e+00
Cu 2.201931241244339810e-01 1.128338555260303411e-01 0.000000000000000000e+00
Cu 2.199508031520385765e-01 2.157570616443144351e-01 0.000000000000000000e+00
Cu 2.198293028884857614e-01 3.188034617422209616e-01 0.000000000000000000e+00
Cu 2.197347691042356166e-01 4.219015278912027211e-01 0.000000000000000000e+00
Cu 2.196523090462400296e-01 5.250287206725349209e-01 0.000000000000000000e+00
Cu 2.195888674793481932e-01 6.281724675377408085e-01 0.000000000000000000e+00
Cu 2.195649765483803362e-01 7.312998890380001393e-01 0.000000000000000000e+00
Cu 2.196661497306581223e-01 8.343391757905460615e-01 0.000000000000000000e+00
Cu 2.199236712118006198e-01 9.373205596285610897e-01 0.000000000000000000e+00
Cu 3.308197800415749179e-01 1.051180942184074332e-02 0.000000000000000000e+00
Cu 3.304378064389585368e-01 1.133114327018877876e-01 0.000000000000000000e+00
Cu 3.301475022843734508e-01 2.161684436870349446e-01 0.000000000000000000e+00
Cu 3.299459728307965189e-01 3.190908628554533499e-01 0.000000000000000000e+00
Cu 3.297917397474748880e-01 4.220598590687724694e-01 0.000000000000000000e+00
Cu 3.296582122122901914e-01 5.250546453621701692e-01 0.000000000000000000e+00
Cu 3.295694887513699323e-01 6.280682433124559205e-01 0.000000000000000000e+00
Cu 3.295602403629982469e-01 7.310691899603222188e-01 0.000000000000000000e+00
Cu 3.296399794270641337e-01 8.340379426178479161e-01 0.000000000000000000e+00
Cu 3.298052285308645248e-01 9.369944462095419757e-01 0.000000000000000000e+00
Cu 4.411101595811464104e-01 1.100104924229231874e-02 0.000000000000000000e+00
Cu 4.407319964212472740e-01 1.137621544631005344e-01 0.000000000000000000e+00
Cu 4.404331342093991131e-01 2.165728064693487054e-01 0.000000000000000000e+00
Cu 4.402096681086923868e-01 3.194248564738766949e-01 0.000000000000000000e+00
Cu 4.400357904322765301e-01 4.222917971423030270e-01 0.000000000000000000e+00
Cu 4.398556156915535698e-01 5.251302473063428344e-01 0.000000000000000000e+00
Cu 4.396980107509711466e-01 6.279844859482195396e-01 0.000000000000000000e+00
Cu 4.396421866918382437e-01 7.308981111553586318e-01 0.000000000000000000e+00
Cu 4.396639217118591958e-01 8.338391095250633489e-01 0.000000000000000000e+00
Cu 4.397216986663409766e-01 9.367730861926010233e-01 0.000000000000000000e+00
Cu 5.515016443030861248e-01 1.149761474188614255e-02 0.000000000000000000e+00
Cu 5.511176996960992502e-01 1.142012478966549643e-01 0.000000000000000000e+00
Cu 5.508162436501210513e-01 2.169590664012865933e-01 0.000000000000000000e+00
Cu 5.505981944958471264e-01 3.197591293716894878e-01 0.000000000000000000e+00
Cu 5.504474539365258323e-01 4.225727537728657390e-01 0.000000000000000000e+00
Cu 5.503176344960060140e-01 5.253393636983422210e-01 0.000000000000000000e+00
Cu 5.500324055100266341e-01 6.279529541444641705e-01 0.000000000000000000e+00
Cu 5.497761608236169106e-01 7.307344444422106955e-01 0.000000000000000000e+00
Cu 5.497320267233620772e-01 8.337397278492613140e-01 0.000000000000000000e+00
Cu 5.497059422204412238e-01 9.367240044603902804e-01 0.000000000000000000e+00
Cu 6.620334080579317604e-01 1.201156659845199412e-02 0.000000000000000000e+00
Cu 6.616342510391719500e-01 1.146369931817464299e-01 0.000000000000000000e+00
Cu 6.613235338682630360e-01 2.173231895657947998e-01 0.000000000000000000e+00
Cu 6.611083963124281260e-01 3.200621141428933725e-01 0.000000000000000000e+00
Cu 6.609905726595779463e-01 4.228391941564683121e-01 0.000000000000000000e+00
Cu 6.609362287430055050e-01 5.256179960512078475e-01 0.000000000000000000e+00
Cu 6.608860990409386460e-01 6.282974504975886720e-01 0.000000000000000000e+00
Cu 6.600361259292806260e-01 7.304163480072841663e-01 0.000000000000000000e+00
Cu 6.594863242929033254e-01 8.336616936458381977e-01 0.000000000000000000e+00
Cu 6.599645347387270711e-01 9.369036364731178068e-01 0.000000000000000000e+00
Cu 7.727457396651796762e-01 1.255317269162548911e-02 0.000000000000000000e+00
Cu 7.723219312327121999e-01 1.150786023685275300e-01 0.000000000000000000e+00
Cu 7.719918579805734593e-01 2.176686265290235789e-01 0.000000000000000000e+00
Cu 7.717673129342851324e-01 3.203182845553101399e-01 0.000000000000000000e+00
Cu 7.716552965397126540e-01 4.230255014596122076e-01 0.000000000000000000e+00
Cu 7.716654771943207702e-01 5.257949457340097554e-01 0.000000000000000000e+00
Cu 7.717121227487288015e-01 6.286351798713490924e-01 0.000000000000000000e+00
Cu 7.719873490066828658e-01 7.315391341278365545e-01 0.000000000000000000e+00
Cu 7.675462566384509966e-01 8.327239001870339052e-01 0.000000000000000000e+00
Cu 7.713769444551720200e-01 9.360983558435631569e-01 0.000000000000000000e+00
Cu 8.836782348565732637e-01 1.313449157641996198e-02 0.000000000000000000e+00
Cu 8.832218207314449510e-01 1.155385152682996686e-01 0.000000000000000000e+00
Cu 8.828660398152872180e-01 2.180053815382592963e-01 0.000000000000000000e+00
Cu 8.826237681661058820e-01 3.205277327509366003e-01 0.000000000000000000e+00
Cu 8.825088206296642923e-01 4.231035836144064755e-01 0.000000000000000000e+00
Cu 8.825225185254965687e-01 5.257391034351801551e-01 0.000000000000000000e+00
Cu 8.827483276236076648e-01 6.284450445371180249e-01 0.000000000000000000e+00
Cu 8.829748159124711782e-01 7.312116081777204624e-01 0.000000000000000000e+00
Cu 8.881246700294769258e-01 8.322085473918657827e-01 0.000000000000000000e+00
Cu 8.851321597117337570e-01 9.354675515715528133e-01 0.000000000000000000e+00
Cu 9.948668725593952100e-01 1.376817769868529835e-02 0.000000000000000000e+00
Cu 9.943739137928013783e-01 1.160311752978087640e-01 0.000000000000000000e+00
Cu 9.939936758965880470e-01 2.183472905771570161e-01 0.000000000000000000e+00
Cu 9.937409535097128099e-01 3.207003980294577117e-01 0.000000000000000000e+00
Cu 9.936332369430894706e-01 4.230762562018443029e-01 0.000000000000000000e+00
Cu 9.937150496837965363e-01 5.254453486564688580e-01 0.000000000000000000e+00
Cu 9.940407717460583159e-01 6.277151293978930902e-01 0.000000000000000000e+00
Cu 9.953999842805167919e-01 7.294268171741342677e-01 0.000000000000000000e+00
Cu 9.966601057900377203e-01 8.322802109712159613e-01 0.000000000000000000e+00
Cu 9.970766369274312035e-01 9.351412587948784161e-01 0.000000000000000000e+00
Cu 1.106340494318628798e+00 1.446553024338408794e-02 0.000000000000000000e+00
Cu 1.105813727958310011e+00 1.165716825437654730e-01 0.000000000000000000e+00
Cu 1.105420940549922015e+00 2.187114516469133574e-01 0.000000000000000000e+00
Cu 1.105176488644733279e+00 3.208561294228197691e-01 0.000000000000000000e+00
Cu 1.105109655247986877e+00 4.229779850522132900e-01 0.000000000000000000e+00
Cu 1.105272016513032973e+00 5.250346704143346033e-01 0.000000000000000000e+00
Cu 1.105836860308027303e+00 6.269457491256162918e-01 0.000000000000000000e+00
Cu 1.106606438052939900e+00 7.290517347358899114e-01 0.000000000000000000e+00
Cu 1.107379915601790499e+00 8.314137455302378354e-01 0.000000000000000000e+00
Cu 1.108332286361188412e+00 9.337642227612460433e-01 0.000000000000000000e+00
Cu 1.218116224748198029e+00 1.523390021287980393e-02 0.000000000000000000e+00
Cu 1.217568302928460078e+00 1.171741148968239443e-01 0.000000000000000000e+00
Cu 1.217185933883882631e+00 2.191187340229022174e-01 0.000000000000000000e+00
Cu 1.216975922951561984e+00 3.210282407378736713e-01 0.000000000000000000e+00
Cu 1.216959186037802176e+00 4.228793878099099679e-01 0.000000000000000000e+00
Cu 1.217180858258924525e+00 5.246677289879556616e-01 0.000000000000000000e+00
Cu 1.217608566831593464e+00 6.264931659944886766e-01 0.000000000000000000e+00
Cu 1.218167645350713091e+00 7.284401045158749310e-01 0.000000000000000000e+00
Cu 1.218881302125964572e+00 8.304792717849527328e-01 0.000000000000000000e+00
Cu 1.219783248618428351e+00 9.325443323633673121e-01 0.000000000000000000e+00
Cu 1.330194524105427600e+00 1.607198332391451129e-02 0.000000000000000000e+00
Cu 1.329652045748008771e+00 1.178468349371073615e-01 0.000000000000000000e+00
Cu 1.329316039736924582e+00 2.195886845041493396e-01 0.000000000000000000e+00
Cu 1.329167792927707925e+00 3.212538626482787651e-01 0.000000000000000000e+00
Cu 1.329197441656710277e+00 4.228401600313742015e-01 0.000000000000000000e+00
Cu 1.329385138056464966e+00 5.244022081514944089e-01 0.000000000000000000e+00
Cu 1.329703736534582958e+00 6.260182524412183369e-01 0.000000000000000000e+00
Cu 1.330158021893522058e+00 7.277316957111243934e-01 0.000000000000000000e+00
Cu 1.330783069249212414e+00 8.295393973744880078e-01 0.000000000000000000e+00
Cu 1.331599824432433188e+00 9.314102739458142155e-01 0.000000000000000000e+00
Cu 1.442555443270245874e+00 1.696155413213794663e-02 0.000000000000000000e+00
Cu 1.442065473132366993e+00 1.185821762235529098e-01 0.000000000000000000e+00
Cu 1.441829724476533459e+00 2.201242519548977095e-01 0.000000000000000000e+00
Cu 1.441784182316713014e+00 3.215457711258949414e-01 0.000000000000000000e+00
Cu 1.441863660054001350e+00 4.228675793726983656e-01 0.000000000000000000e+00
Cu 1.442016548970815659e+00 5.241614617176137969e-01 0.000000000000000000e+00
Cu 1.442233077712159917e+00 6.255126832119054514e-01 0.000000000000000000e+00
Cu 1.442552955954483851e+00 7.269816085363446367e-01 0.000000000000000000e+00
Cu 1.443039834383224918e+00 8.285851648680251369e-01 0.000000000000000000e+00
Cu 1.443755993940285975e+00 9.302858863651354282e-01 0.000000000000000000e+00
Cu 1.555157419583316658e+00 1.785566151661643897e-02 0.000000000000000000e+00
Cu 1.554798387022176209e+00 1.193413539600717693e-01 0.000000000000000000e+00
Cu 1.554745976157375198e+00 2.206894910237123808e-01 0.000000000000000000e+00
Cu 1.554870841135144177e+00 3.218693170968651152e-01 0.000000000000000000e+00
Cu 1.555042740633364895e+00 4.229234078232542160e-01 0.000000000000000000e+00
Cu 1.555171791362118139e+00 5.239390874816547417e-01 0.000000000000000000e+00
Cu 1.555253554732692445e+00 6.250154880947355052e-01 0.000000000000000000e+00
Cu 1.555369140211345869e+00 7.262356761648173231e-01 0.000000000000000000e+00
Cu 1.555641654753081138e+00 8.276381463930229110e-01 0.000000000000000000e+00
Cu 1.556196580853132172e+00 9.291900612023343831e-01 0.000000000000000000e+00
Cu 1.667936239701742984e+00 1.866370021295868722e-02 0.000000000000000000e+00
Cu 1.667838831825534607e+00 1.200370787252631327e-01 0.000000000000000000e+00
Cu 1.668096443734240486e+00 2.211876253923689695e-01 0.000000000000000000e+00
Cu 1.668484358846353599e+00 3.221298842286757780e-01 0.000000000000000000e+00
Cu 1.668795865754084451e+00 4.229589466311690638e-01 0.000000000000000000e+00
Cu 1.668908390617031445e+00 5.237639768254034323e-01 0.000000000000000000e+00
Cu 1.668818486607071438e+00 6.246097723050074713e-01 0.000000000000000000e+00
Cu 1.668641815055038835e+00 7.255838082192128669e-01 0.000000000000000000e+00
Cu 1.668578879931455816e+00 8.267781384097192543e-01 0.000000000000000000e+00
Cu 1.668850042738131867e+00 9.282037994790363067e-01 0.000000000000000000e+00
Cu 1.780796055997037275e+00 1.922739327926153291e-02 0.000000000000000000e+00
Cu 1.781191280215561390e+00 1.205076068351566831e-01 0.000000000000000000e+00
Cu 1.781945895308224115e+00 2.214345397785220659e-01 0.000000000000000000e+00
Cu 1.782670378705262237e+00 3.221698515140397068e-01 0.000000000000000000e+00
Cu 1.783113367557020990e+00 4.229101367282198654e-01 0.000000000000000000e+00
Cu 1.783214471666682677e+00 5.236878231920751858e-01 0.000000000000000000e+00
Cu 1.782970378244607801e+00 6.244407195067985805e-01 0.000000000000000000e+00
Cu 1.782435242343928250e+00 7.252001345854329761e-01 0.000000000000000000e+00
Cu 1.781855467291766137e+00 8.261603747729753255e-01 0.000000000000000000e+00
Cu 1.781617013616885847e+00 9.274798353353097546e-01 0.000000000000000000e+00
Cu 1.893573746401545632e+00 1.925220519636076238e-02 0.000000000000000000e+00
Cu 1.894926054252069392e+00 1.204470541455514854e-01 0.000000000000000000e+00
Cu 1.896412499888030956e+00 2.211168201835626013e-01 0.000000000000000000e+00
Cu 1.897405571358803389e+00 3.218179150783248565e-01 0.000000000000000000e+00
Cu 1.897878077202518776e+00 4.227379880535852008e-01 0.000000000000000000e+00
Cu 1.897971775061791266e+00 5.237390686919428662e-01 0.000000000000000000e+00
Cu 1.897683446041424693e+00 6.246691115838699515e-01 0.000000000000000000e+00
Cu 1.896865188954254489e+00 7.253889493745312445e-01 0.000000000000000000e+00
Cu 1.895539366791640923e+00 8.260838914475331363e-01 0.000000000000000000e+00
Cu 1.894331378258057530e+00 9.273072449147501395e-01 0.000000000000000000e+00
Cu 2.005944117434142360e+00 1.806072909174201088e-02 0.000000000000000000e+00
Cu 2.009323916448666036e+00 1.191526506115159617e-01 0.000000000000000000e+00
Cu 2.011515348884817200e+00 2.198837728524304924e-01 0.000000000000000000e+00
Cu 2.012484404539426563e+00 3.210908053463812362e-01 0.000000000000000000e+00
Cu 2.012923522701994372e+00 4.224659408072002353e-01 0.000000000000000000e+00
Cu 2.013012740202299256e+00 5.238843971202585825e-01 0.000000000000000000e+00
Cu 2.012749210329754401e+00 6.252688952705525161e-01 0.000000000000000000e+00
Cu 2.011947147733148089e+00 7.264928341319211169e-01 0.000000000000000000e+00
Cu 2.009908594386553116e+00 8.272454859807798488e-01 0.000000000000000000e+00
Cu 2.006664909719683809e+00 9.283590159963128752e-01 0.000000000000000000e+00
Cu 2.117167471963457004e+00 1.269052997873535218e-02 0.000000000000000000e+00
Cu 2.124529702959663702e+00 1.155867301139463371e-01 0.000000000000000000e+00
Cu 2.126695026508077291e+00 2.181086947285959809e-01 0.000000000000000000e+00
Cu 2.127714458826404087e+00 3.202446187902858732e-01 0.000000000000000000e+00
Cu 2.128154203836484903e+00 4.221696888209243714e-01 0.000000000000000000e+00
Cu 2.128240593447785045e+00 5.240387683579216249e-01 0.000000000000000000e+00
Cu 2.127971370383618943e+00 6.259749877850017130e-01 0.000000000000000000e+00
Cu 2.127115779433911502e+00 7.281310431999187260e-01 0.000000000000000000e+00
Cu 2.125103087601486251e+00 8.306774962791567685e-01 0.000000000000000000e+00
Cu 2.117878229467404783e+00 9.335982264504426587e-01 0.000000000000000000e+00
