200

Cu 0.000000000000000000e+00 7.450330528439780449e-03 0.000000000000000000e+00
Cu 0.000000000000000000e+00 1.112075829109073766e-01 0.000000000000000000e+00
Cu 0.000000000000000000e+00 2.147607892210510738e-01 0.000000000000000000e+00
Cu 0.000000000000000000e+00 3.182344094713597249e-01 0.000000000000000000e+00
Cu 0.000000000000000000e+00 4.216909438813726263e-01 0.000000000000000000e+00
Cu 0.000000000000000000e+00 5.251556462547728454e-01 0.000000000000000000e+00
Cu 0.000000000000000000e+00 6.286458485045700595e-01 0.000000000000000000e+00
Cu 0.000000000000000000e+00 7.321833112639670738e-01 0.000000000000000000e+00
Cu 0.000000000000000000e+00 8.358224137181379243e-01 0.000000000000000000e+00
Cu 0.000000000000000000e+00 9.396740611275592459e-01 0.000000000000000000e+00
Cu 1.098859803251469730e-01 8.484889965694505931e-03 0.000000000000000000e+00
Cu 1.095154996860368823e-01 1.115647468609461956e-01 0.000000000000000000e+00
Cu 1.094574611328634206e-01 2.149147290204288241e-01 0.000000000000000000e+00
Cu 1.094200980974641968e-01 3.183109013646369667e-01 0.000000000000000000e+00
Cu 1.093843004739843139e-01 4.217191105449602517e-01 0.000000000000000000e+00
Cu 1.093483134558888153e-01 5.251435258895233993e-01 0.000000000000000000e+00
Cu 1.093135885114206174e-01 6.285885132487922800e-01 0.000000000000000000e+00
Cu 1.092846242795094958e-01 7.320539115062933977e-01 0.000000000000000000e+00
Cu 1.092816073730577542e-01 8.355029423732228677e-01 0.000000000000000000e+00
Cu 1.095794759192474654e-01 9.387217354436739880e-01 0.000000000000000000e+00
Cu 2.196500515074442939e-01 9.016361554230474529e-03 0.000000000000000000e+00
Cu 2.192795653278350465e-01 1.120760034394805565e-01 0.000000000000000000e+00
Cu 2.190530657621512778e-01 2.152258804246567070e-01 0.000000000000000000e+00
Cu 2.189383840021605354e-01 3.184907071868052220e-01 0.000000000000000000e+00
Cu 2.188499727015505714e-01 4.218043598587306042e-01 0.000000000000000000e+00
Cu 2.187742756806463906e-01 5.251453071987585153e-01 0.000000000000000000e+00
Cu 2.187176608388595733e-01 6.285010008194376052e-01 0.000000000000000000e+00
Cu 2.186988121996478740e-01 7.318403073953860805e-01 0.000000000000000000e+00
Cu 2.187955512648417922e-01 8.350968076491381842e-01 0.000000000000000000e+00
Cu 2.190363882389679551e-01 9.382976219008765106e-01 0.000000000000000000e+00
Cu 3.294185688013683277e-01 9.486551646459404422e-03 0.000000000000000000e+00
Cu 3.290595031145799321e-01 1.125182086870043785e-01 0.000000000000000000e+00
Cu 3.287865667720610285e-01 2.156058757832786665e-01 0.000000000000000000e+00
Cu 3.285969392404200495e-01 3.187556781930054872e-01 0.000000000000000000e+00
Cu 3.284527805466251338e-01 4.219495488126558946e-01 0.000000000000000000e+00
Cu 3.283300228064990334e-01 5.251677522445994395e-01 0.000000000000000000e+00
Cu 3.282509043809928584e-01 6.284029544107974097e-01 0.000000000000000000e+00
Cu 3.282469589363427587e-01 7.316252680252455232e-01 0.000000000000000000e+00
Cu 3.283263647477414060e-01 8.348156943740487890e-01 0.000000000000000000e+00
Cu 3.284859049785858187e-01 9.379915234958269288e-01 0.000000000000000000e+00
Cu 4.392501549987570808e-01 9.946805051188715996e-03 0.000000000000000000e+00
Cu 4.388906963852872711e-01 1.129398580396251128e-01 0.000000000000000000e+00
Cu 4.386070732857100252e-01 2.159821355062750137e-01 0.000000000000000000e+00
Cu 4.383955716905374445e-01 3.190649658903239039e-01 0.000000000000000000e+00
Cu 4.382323797979468250e-01 4.221628398772907520e-01 0.000000000000000000e+00
Cu 4.380664119915145815e-01 5.252351407902021707e-01 0.000000000000000000e+00
Cu 4.379245610876525974e-01 6.283220134472532470e-01 0.000000000000000000e+00
Cu 4.378795700531481483e-01 7.314621509144100253e-01 0.000000000000000000e+00
Cu 4.379086984478660627e-01 8.346247810132305656e-01 0.000000000000000000e+00
Cu 4.379730848794816112e-01 9.377767989437107987e-01 0.000000000000000000e+00
Cu 5.491825609950200526e-01 1.041896810242262834e-02 0.000000000000000000e+00
Cu 5.488135841781015545e-01 1.133549513434023714e-01 0.000000000000000000e+00
Cu 5.485243679138155359e-01 2.163447844157276589e-01 0.000000000000000000e+00
Cu 5.483157324732726989e-01 3.193763276024794151e-01 0.000000000000000000e+00
Cu 5.481729047944270405e-01 4.224220199340791293e-01 0.000000000000000000e+00
Cu 5.480527428988805072e-01 5.254248445992424355e-01 0.000000000000000000e+00
Cu 5.477940342417566555e-01 6.282869490399524137e-01 0.000000000000000000e+00
Cu 5.475663412347674397e-01 7.313028940599480832e-01 0.000000000000000000e+00
Cu 5.475382136461940386e-01 8.345213751378427469e-01 0.000000000000000000e+00
Cu 5.475305991642555048e-01 9.377160952514252967e-01 0.000000000000000000e+00
Cu 6.592538185133378636e-01 1.091259211691624452e-02 0.000000000000000000e+00
Cu 6.588662755774010726e-01 1.137714178985409635e-01 0.000000000000000000e+00
Cu 6.585649356862944837e-01 2.166904231462760400e-01 0.000000000000000000e+00
Cu 6.583564864905651071e-01 3.196610396553962175e-01 0.000000000000000000e+00
Cu 6.582425628124619621e-01 4.226686677965491024e-01 0.000000000000000000e+00
Cu 6.581923532922703268e-01 5.256786088238294408e-01 0.000000000000000000e+00
Cu 6.581489582007482575e-01 6.285959734597338366e-01 0.000000000000000000e+00
Cu 6.573782801303739154e-01 7.309981180140801005e-01 0.000000000000000000e+00
Cu 6.568856846000595828e-01 8.344338809298310622e-01 0.000000000000000000e+00
Cu 6.573518914878944130e-01 9.378588787627611945e-01 0.000000000000000000e+00
Cu 7.695029802236296179e-01 1.143758247181224895e-02 0.000000000000000000e+00
Cu 7.690878010112458529e-01 1.141981939164616600e-01 0.000000000000000000e+00
Cu 7.687647244745792197e-01 2.170226928160689239e-01 0.000000000000000000e+00
Cu 7.685447597783495732e-01 3.199052630008625275e-01 0.000000000000000000e+00
Cu 7.684346064540535926e-01 4.228427846360378606e-01 0.000000000000000000e+00
Cu 7.684429018062064465e-01 5.258383623129616602e-01 0.000000000000000000e+00
Cu 7.684926001832422804e-01 6.288988048987560475e-01 0.000000000000000000e+00
Cu 7.687484540724498494e-01 7.320143749039978998e-01 0.000000000000000000e+00
Cu 7.646986247942123560e-01 8.335500894901232138e-01 0.000000000000000000e+00
Cu 7.682398181535934345e-01 9.370914545383797201e-01 0.000000000000000000e+00
Cu 8.799684017128922564e-01 1.200555490909221111e-02 0.000000000000000000e+00
Cu 8.795179432311256429e-01 1.146472638114895137e-01 0.000000000000000000e+00
Cu 8.791670617858723391e-01 2.173513178033210647e-01 0.000000000000000000e+00
Cu 8.789278061960494881e-01 3.201095908314209870e-01 0.000000000000000000e+00
Cu 8.788130064473981262e-01 4.229190211726042148e-01 0.000000000000000000e+00
Cu 8.788243986458734724e-01 5.257841093033353008e-01 0.000000000000000000e+00
Cu 8.790369961090240825e-01 6.287136595464040134e-01 0.000000000000000000e+00
Cu 8.792683645283778660e-01 7.316949062873615572e-01 0.000000000000000000e+00
Cu 8.840114308123313558e-01 8.330489775078918635e-01 0.000000000000000000e+00
Cu 8.812865050503189135e-01 9.364739500001909578e-01 0.000000000000000000e+00
Cu 9.906849897937431981e-01 1.262865878686081356e-02 0.000000000000000000e+00
Cu 9.901954657299013585e-01 1.151324565196806676e-01 0.000000000000000000e+00
Cu 9.898179375549803760e-01 2.176895132637980679e-01 0.000000000000000000e+00
Cu 9.895661243525689654e-01 3.202835134537180828e-01 0.000000000000000000e+00
Cu 9.894563958917462765e-01 4.229001223977146284e-01 0.000000000000000000e+00
Cu 9.895296459897384711e-01 5.255110883982921921e-01 0.000000000000000000e+00
Cu 9.898384956613424102e-01 6.280294021646597447e-01 0.000000000000000000e+00
Cu 9.911038475400130165e-01 7.300348040049142728e-01 0.000000000000000000e+00
Cu 9.922886348121505717e-01 8.330891178443482481e-01 0.000000000000000000e+00
Cu 9.926951696783539170e-01 9.361426241232050360e-01 0.000000000000000000e+00
Cu 1.101680873173073172e+00 1.331767080730681882e-02 0.000000000000000000e+00
Cu 1.101154974044159296e+00 1.156681162873129387e-01 0.000000000000000000e+00
Cu 1.100762129805395340e+00 2.180533964409600844e-01 0.000000000000000000e+00
Cu 1.100515475670666765e+00 3.204454473414938276e-01 0.000000000000000000e+00
Cu 1.100442045012083758e+00 4.228176060085858112e-01 0.000000000000000000e+00
Cu 1.100589969820807035e+00 5.251299372808795329e-01 0.000000000000000000e+00
Cu 1.101117727109665045e+00 6.273085951026237117e-01 0.000000000000000000e+00
Cu 1.101843022181629328e+00 7.296669147361223295e-01 0.000000000000000000e+00
Cu 1.102580509927201469e+00 8.322584261994793176e-01 0.000000000000000000e+00
Cu 1.103492447119082120e+00 9.348347766543840809e-01 0.000000000000000000e+00
Cu 1.212973067331339916e+00 1.407944080150447773e-02 0.000000000000000000e+00
Cu 1.212423153836047263e+00 1.162674208745023280e-01 0.000000000000000000e+00
Cu 1.212037117847192702e+00 2.184623927291725609e-01 0.000000000000000000e+00
Cu 1.211820622968952099e+00 3.206261474594358507e-01 0.000000000000000000e+00
Cu 1.211792720075614893e+00 4.227363670119919647e-01 0.000000000000000000e+00
Cu 1.211994588678394047e+00 5.247890237770630462e-01 0.000000000000000000e+00
Cu 1.212396016252877073e+00 6.268765266974647421e-01 0.000000000000000000e+00
Cu 1.212928334004078401e+00 7.290759070842660616e-01 0.000000000000000000e+00
Cu 1.213613802905369798e+00 8.313589445973698089e-01 0.000000000000000000e+00
Cu 1.214485169192320413e+00 9.336623250644087157e-01 0.000000000000000000e+00
Cu 1.324562771830101848e+00 1.491232458649088474e-02 0.000000000000000000e+00
Cu 1.324014841245289009e+00 1.169378442321463429e-01 0.000000000000000000e+00
Cu 1.323670498545685081e+00 2.189344057527611020e-01 0.000000000000000000e+00
Cu 1.323510947867140297e+00 3.208597811057207760e-01 0.000000000000000000e+00
Cu 1.323525819061213360e+00 4.227114929685971689e-01 0.000000000000000000e+00
Cu 1.323695943630047500e+00 5.245406578563824862e-01 0.000000000000000000e+00
Cu 1.323996224488662055e+00 6.264203311574693123e-01 0.000000000000000000e+00
Cu 1.324431933702073794e+00 7.283908559651260939e-01 0.000000000000000000e+00
Cu 1.325037039022897378e+00 8.304485406602724051e-01 0.000000000000000000e+00
Cu 1.325832734022730719e+00 9.325629315917554063e-01 0.000000000000000000e+00
Cu 1.436431798576069507e+00 1.579827911188647419e-02 0.000000000000000000e+00
Cu 1.435931754682982397e+00 1.176713313162552760e-01 0.000000000000000000e+00
Cu 1.435681603009278051e+00 2.194713632633927269e-01 0.000000000000000000e+00
Cu 1.435619222721436383e+00 3.211575799970747269e-01 0.000000000000000000e+00
Cu 1.435681655241239696e+00 4.227492051415530638e-01 0.000000000000000000e+00
Cu 1.435819494743956426e+00 5.243140700154083067e-01 0.000000000000000000e+00
Cu 1.436023785991070723e+00 6.259330242064014005e-01 0.000000000000000000e+00
Cu 1.436333079366553855e+00 7.276632231893955804e-01 0.000000000000000000e+00
Cu 1.436809009204622178e+00 8.295201737703711276e-01 0.000000000000000000e+00
Cu 1.437512154712461632e+00 9.314673532197087491e-01 0.000000000000000000e+00
Cu 1.548541394875074584e+00 1.669164688449847542e-02 0.000000000000000000e+00
Cu 1.548165468756592444e+00 1.184299488264790728e-01 0.000000000000000000e+00
Cu 1.548090236427963617e+00 2.200380186168165719e-01 0.000000000000000000e+00
Cu 1.548191089425716704e+00 3.214857914854836185e-01 0.000000000000000000e+00
Cu 1.548342621668444385e+00 4.228134071089936774e-01 0.000000000000000000e+00
Cu 1.548458421552953546e+00 5.241040186789096555e-01 0.000000000000000000e+00
Cu 1.548534475391230902e+00 6.254522596788905098e-01 0.000000000000000000e+00
Cu 1.548649217506398612e+00 7.269373407009037669e-01 0.000000000000000000e+00
Cu 1.548921507405584874e+00 8.285956296690281109e-01 0.000000000000000000e+00
Cu 1.549472393704523387e+00 9.303951692441330135e-01 0.000000000000000000e+00
Cu 1.660831232663847690e+00 1.750494072508908955e-02 0.000000000000000000e+00
Cu 1.660705999909066310e+00 1.191292814905465236e-01 0.000000000000000000e+00
Cu 1.660928295806220145e+00 2.205408558489621307e-01 0.000000000000000000e+00
Cu 1.661282019657255082e+00 3.217533653889441125e-01 0.000000000000000000e+00
Cu 1.661568157431281723e+00 4.228576013854422055e-01 0.000000000000000000e+00
Cu 1.661668702411936316e+00 5.239386700115905571e-01 0.000000000000000000e+00
Cu 1.661580549526518569e+00 6.250583445953055151e-01 0.000000000000000000e+00
Cu 1.661415438624467722e+00 7.263001830763934352e-01 0.000000000000000000e+00
Cu 1.661366694357778062e+00 8.277521790564708049e-01 0.000000000000000000e+00
Cu 1.661646402949951362e+00 9.294247934354710194e-01 0.000000000000000000e+00
Cu 1.773210885110141133e+00 1.808580136772585528e-02 0.000000000000000000e+00
Cu 1.773559476940907320e+00 1.196134146175694274e-01 0.000000000000000000e+00
Cu 1.774259482665782706e+00 2.208025542773361938e-01 0.000000000000000000e+00
Cu 1.774936610031466522e+00 3.218087257295394465e-01 0.000000000000000000e+00
Cu 1.775349257107071033e+00 4.228203647100760021e-01 0.000000000000000000e+00
Cu 1.775439247227392769e+00 5.238679921129254513e-01 0.000000000000000000e+00
Cu 1.775203605245236238e+00 6.248912613043723363e-01 0.000000000000000000e+00
Cu 1.774694886898655177e+00 7.259196638634689558e-01 0.000000000000000000e+00
Cu 1.774150171718755553e+00 8.271395168663664421e-01 0.000000000000000000e+00
Cu 1.773940463320917926e+00 9.287032816470647267e-01 0.000000000000000000e+00
Cu 1.885526176433788059e+00 1.815081621886610250e-02 0.000000000000000000e+00
Cu 1.886795973070263477e+00 1.195878750571415516e-01 0.000000000000000000e+00
Cu 1.888198445747953480e+00 2.205219350754129004e-01 0.000000000000000000e+00
Cu 1.889132534272619068e+00 3.214876876305640674e-01 0.000000000000000000e+00
Cu 1.889573109617133984e+00 4.226644872779409257e-01 0.000000000000000000e+00
Cu 1.889656227369020280e+00 5.239194173974768276e-01 0.000000000000000000e+00
Cu 1.889379011290810650e+00 6.251053948340111743e-01 0.000000000000000000e+00
Cu 1.888599912781660395e+00 7.260883945235171444e-01 0.000000000000000000e+00
Cu 1.887339718335474315e+00 8.270456047250855924e-01 0.000000000000000000e+00
Cu 1.886197524976837903e+00 9.285088088278002916e-01 0.000000000000000000e+00
Cu 1.997471229792835201e+00 1.704920507091790827e-02 0.000000000000000000e+00
Cu 2.000687442373581426e+00 1.183774937306840969e-01 0.000000000000000000e+00
Cu 2.002762418438179370e+00 2.193639541586850927e-01 0.000000000000000000e+00
Cu 2.003672192055876433e+00 3.208070569676250705e-01 0.000000000000000000e+00
Cu 2.004079316996864257e+00 4.224129746928526052e-01 0.000000000000000000e+00
Cu 2.004158253238065956e+00 5.240608072711612220e-01 0.000000000000000000e+00
Cu 2.003906466731811165e+00 6.256752794801543338e-01 0.000000000000000000e+00
Cu 2.003144391448205219e+00 7.271338330883996282e-01 0.000000000000000000e+00
Cu 2.001204599629705427e+00 8.281399253782967262e-01 0.000000000000000000e+00
Cu 1.998108702541830262e+00 9.294878461501713263e-01 0.000000000000000000e+00
Cu 2.108361079929947923e+00 1.194391439122851999e-02 0.000000000000000000e+00
Cu 2.115363950344828048e+00 1.149933967953410546e-01 0.000000000000000000e+00
Cu 2.117414360137352070e+00 2.176861958288801024e-01 0.000000000000000000e+00
Cu 2.118369266513448590e+00 3.200126612240757340e-01 0.000000000000000000e+00
Cu 2.118776398502157488e+00 4.221385268644585742e-01 0.000000000000000000e+00
Cu 2.118852691310394665e+00 5.242108491155631489e-01 0.000000000000000000e+00
Cu 2.118596143353999040e+00 6.263468031699949146e-01 0.000000000000000000e+00
Cu 2.117785902999608894e+00 7.286914625972962245e-01 0.000000000000000000e+00
Cu 2.115870266375543540e+00 8.314063515872360810e-01 0.000000000000000000e+00
Cu 2.108988789863443625e+00 9.344776607825698855e-01 0.000000000000000000e+00
