200

Cu 0.000000000000000000e+00 4.876080582328733842e-02 0.000000000000000000e+00
Cu 0.000000000000000000e+00 1.446310146392421336e-01 0.000000000000000000e+00
Cu 0.000000000000000000e+00 2.391123041500136104e-01 0.000000000000000000e+00
Cu 0.000000000000000000e+00 3.329662591372909985e-01 0.000000000000000000e+00
Cu 0.000000000000000000e+00 4.266025303746153186e-01 0.000000000000000000e+00
Cu 0.000000000000000000e+00 5.202312332595327993e-01 0.000000000000000000e+00
Cu 0.000000000000000000e+00 6.140229020657349546e-01 0.000000000000000000e+00
Cu 0.000000000000000000e+00 7.081663717814062897e-01 0.000000000000000000e+00
Cu 0.000000000000000000e+00 8.030278950569372798e-01 0.000000000000000000e+00
Cu 0.000000000000000000e+00 8.992988992064131493e-01 0.000000000000000000e+00
Cu 1.318075536417954441e-01 5.389908283960175017e-02 0.000000000000000000e+00
Cu 1.304699598952871464e-01 1.464075116794446296e-01 0.000000000000000000e+00
Cu 1.304265109143477319e-01 2.398561206385350919e-01 0.000000000000000000e+00
Cu 1.303685380783156655e-01 3.333237383035202450e-01 0.000000000000000000e+00
Cu 1.302674266321870722e-01 4.267269020409789615e-01 0.000000000000000000e+00
Cu 1.301088825683388017e-01 5.201620228313961203e-01 0.000000000000000000e+00
Cu 1.299057128544925666e-01 6.137301684685959602e-01 0.000000000000000000e+00
Cu 1.296924115893109408e-01 7.075073560394666838e-01 0.000000000000000000e+00
Cu 1.295105210482002944e-01 8.013848383177073487e-01 0.000000000000000000e+00
Cu 1.306342721420416519e-01 8.944372191060022681e-01 0.000000000000000000e+00
Cu 2.629996217176496787e-01 5.631345689974434632e-02 0.000000000000000000e+00
Cu 2.618934465778120502e-01 1.485872705372134062e-01 0.000000000000000000e+00
Cu 2.612935957776472140e-01 2.411553804014572866e-01 0.000000000000000000e+00
Cu 2.610496543270874881e-01 3.340646997528305406e-01 0.000000000000000000e+00
Cu 2.607886880225263049e-01 4.270733961421208646e-01 0.000000000000000000e+00
Cu 2.604621623679049258e-01 5.201517981537332469e-01 0.000000000000000000e+00
Cu 2.601024372739799140e-01 6.133243749392959243e-01 0.000000000000000000e+00
Cu 2.597987888541539170e-01 7.065424794120945817e-01 0.000000000000000000e+00
Cu 2.599212164368460698e-01 7.995619776632676423e-01 0.000000000000000000e+00
Cu 2.606228273855433208e-01 8.924178909182365338e-01 0.000000000000000000e+00
Cu 3.940921137396738994e-01 5.799550557249730925e-02 0.000000000000000000e+00
Cu 3.932032930984798447e-01 1.502288409537037572e-01 0.000000000000000000e+00
Cu 3.925454251230570679e-01 2.425602724238581642e-01 0.000000000000000000e+00
Cu 3.921022617026403978e-01 3.350509466196257558e-01 0.000000000000000000e+00
Cu 3.916917881698533388e-01 4.276347008873858102e-01 0.000000000000000000e+00
Cu 3.911845311768767930e-01 5.202550762829920572e-01 0.000000000000000000e+00
Cu 3.906543154236286619e-01 6.129522698181175677e-01 0.000000000000000000e+00
Cu 3.902724988984391796e-01 7.056990388236138445e-01 0.000000000000000000e+00
Cu 3.901760197977471867e-01 7.984727635478771068e-01 0.000000000000000000e+00
Cu 3.904136171958975665e-01 8.913335898223155862e-01 0.000000000000000000e+00
Cu 5.251857341724734951e-01 5.932125646919848838e-02 0.000000000000000000e+00
Cu 5.244708775694204572e-01 1.515340530476439185e-01 0.000000000000000000e+00
Cu 5.238980581379997226e-01 2.437925003707084592e-01 0.000000000000000000e+00
Cu 5.234468753418803910e-01 3.361076831223192563e-01 0.000000000000000000e+00
Cu 5.230302203713133036e-01 4.284268781940620552e-01 0.000000000000000000e+00
Cu 5.223794105967237700e-01 5.205896593008725315e-01 0.000000000000000000e+00
Cu 5.215482293077294829e-01 6.127584183422174480e-01 0.000000000000000000e+00
Cu 5.208399935474899989e-01 7.052092151996109948e-01 0.000000000000000000e+00
Cu 5.203170032944703927e-01 7.979438001982525064e-01 0.000000000000000000e+00
Cu 5.200091085118129230e-01 8.908975321783768608e-01 0.000000000000000000e+00
Cu 6.563239203862155646e-01 6.039919804033481304e-02 0.000000000000000000e+00
Cu 6.557600222730370909e-01 1.525841261571124208e-01 0.000000000000000000e+00
Cu 6.553049762672525924e-01 2.448130106470110257e-01 0.000000000000000000e+00
Cu 6.549589397367706622e-01 3.370879063615022653e-01 0.000000000000000000e+00
Cu 6.546319724552160935e-01 4.293475792551289527e-01 0.000000000000000000e+00
Cu 6.542546329014546913e-01 5.214497901968538907e-01 0.000000000000000000e+00
Cu 6.529011443183937446e-01 6.128999266907695365e-01 0.000000000000000000e+00
Cu 6.513583312318740326e-01 7.049066745892106356e-01 0.000000000000000000e+00
Cu 6.502815977514178059e-01 7.979775498998423755e-01 0.000000000000000000e+00
Cu 6.493124840291220057e-01 8.912852370449034778e-01 0.000000000000000000e+00
Cu 7.875482713355624886e-01 6.126383554333900139e-02 0.000000000000000000e+00
Cu 7.871164325532412631e-01 1.534005490098852009e-01 0.000000000000000000e+00
Cu 7.867781874431726274e-01 2.455963527708309724e-01 0.000000000000000000e+00
Cu 7.865357031697934875e-01 3.378668948686866513e-01 0.000000000000000000e+00
Cu 7.864083805453507825e-01 4.302089382841809972e-01 0.000000000000000000e+00
Cu 7.861487522420121943e-01 5.225231310425072495e-01 0.000000000000000000e+00
Cu 7.860932601347249138e-01 6.146194052312917711e-01 0.000000000000000000e+00
Cu 7.816919344745286713e-01 7.042227399692030376e-01 0.000000000000000000e+00
Cu 7.790212866944621339e-01 7.982896835716838391e-01 0.000000000000000000e+00
Cu 7.786283838480914099e-01 8.931480779558672589e-01 0.000000000000000000e+00
Cu 9.189070111372282801e-01 6.193293759864212239e-02 0.000000000000000000e+00
Cu 9.185911593807537523e-01 1.539926443631167985e-01 0.000000000000000000e+00
Cu 9.183452459552789993e-01 2.461210349686836218e-01 0.000000000000000000e+00
Cu 9.182028826156973800e-01 3.383502584776269528e-01 0.000000000000000000e+00
Cu 9.181374167323196334e-01 4.307200624386167132e-01 0.000000000000000000e+00
Cu 9.183142810638569298e-01 5.233037809516855043e-01 0.000000000000000000e+00
Cu 9.178328488724774026e-01 6.161661343484480247e-01 0.000000000000000000e+00
Cu 9.200827855346676021e-01 7.097272439098289976e-01 0.000000000000000000e+00
Cu 8.977543180088941588e-01 7.954573624000431664e-01 0.000000000000000000e+00
Cu 9.130170968308516377e-01 8.914792790047391113e-01 0.000000000000000000e+00
Cu 1.050454722970631805e+00 6.242791989536870118e-02 0.000000000000000000e+00
Cu 1.050237466449086332e+00 1.543780973604745033e-01 0.000000000000000000e+00
Cu 1.050075313588496151e+00 2.463894574241973778e-01 0.000000000000000000e+00
Cu 1.049992332033647502e+00 3.384885463643210746e-01 0.000000000000000000e+00
Cu 1.050059698185875412e+00 4.307156541195698018e-01 0.000000000000000000e+00
Cu 1.050131392038915479e+00 5.231494659026713068e-01 0.000000000000000000e+00
Cu 1.051103118819677107e+00 6.158600409403216513e-01 0.000000000000000000e+00
Cu 1.049524258601554294e+00 7.092994755277841623e-01 0.000000000000000000e+00
Cu 1.072601092214623630e+00 7.946865140869857624e-01 0.000000000000000000e+00
Cu 1.058259854569804759e+00 8.907236607800286254e-01 0.000000000000000000e+00
Cu 1.182241880228548814e+00 6.277954664426618758e-02 0.000000000000000000e+00
Cu 1.182112477648043392e+00 1.545907183631424486e-01 0.000000000000000000e+00
Cu 1.182030428339188033e+00 2.464339966686268368e-01 0.000000000000000000e+00
Cu 1.182047159055901409e+00 3.383056109438856152e-01 0.000000000000000000e+00
Cu 1.182180812298647909e+00 4.302028289028753671e-01 0.000000000000000000e+00
Cu 1.182698281902919257e+00 5.220473702608816602e-01 0.000000000000000000e+00
Cu 1.183236093961035129e+00 6.136833083577629688e-01 0.000000000000000000e+00
Cu 1.188315947222746694e+00 7.028234769975697516e-01 0.000000000000000000e+00
Cu 1.191813648971066231e+00 7.964531645676392602e-01 0.000000000000000000e+00
Cu 1.193175205805590444e+00 8.909111935696640838e-01 0.000000000000000000e+00
Cu 1.314305995835679974e+00 6.302780303236325821e-02 0.000000000000000000e+00
Cu 1.314257161707930610e+00 1.546812021479068988e-01 0.000000000000000000e+00
Cu 1.314279016338169015e+00 2.463187853416994033e-01 0.000000000000000000e+00
Cu 1.314413317993848418e+00 3.378996999479142449e-01 0.000000000000000000e+00
Cu 1.314770704769337772e+00 4.293630722394725097e-01 0.000000000000000000e+00
Cu 1.315414035736739207e+00 5.206179790041277622e-01 0.000000000000000000e+00
Cu 1.317261923722783168e+00 6.112381852146716588e-01 0.000000000000000000e+00
Cu 1.319508114514999608e+00 7.024795685810312218e-01 0.000000000000000000e+00
Cu 1.321477507765772330e+00 7.948627293712318131e-01 0.000000000000000000e+00
Cu 1.323441840631883748e+00 8.875243532582307582e-01 0.000000000000000000e+00
Cu 1.446657356388107329e+00 6.321700936300082840e-02 0.000000000000000000e+00
Cu 1.446693234965190200e+00 1.547115830035804829e-01 0.000000000000000000e+00
Cu 1.446844250100312035e+00 2.461340173594624148e-01 0.000000000000000000e+00
Cu 1.447151049338644802e+00 3.374124795647533981e-01 0.000000000000000000e+00
Cu 1.447667831883393097e+00 4.284998526830022247e-01 0.000000000000000000e+00
Cu 1.448612096290328832e+00 5.193364759012316645e-01 0.000000000000000000e+00
Cu 1.449920119114529449e+00 6.102261391064811580e-01 0.000000000000000000e+00
Cu 1.451324967692636969e+00 7.015521225656636828e-01 0.000000000000000000e+00
Cu 1.452768035013365600e+00 7.933299888069962336e-01 0.000000000000000000e+00
Cu 1.454172697749267495e+00 8.854194107670201319e-01 0.000000000000000000e+00
Cu 1.579271203804578416e+00 6.338310727668716726e-02 0.000000000000000000e+00
Cu 1.579409411283791975e+00 1.547406543050368899e-01 0.000000000000000000e+00
Cu 1.579732567970478119e+00 2.459681354492486149e-01 0.000000000000000000e+00
Cu 1.580222449224542913e+00 3.369878583405366834e-01 0.000000000000000000e+00
Cu 1.580896466216069163e+00 4.277899896202594920e-01 0.000000000000000000e+00
Cu 1.581737042250157543e+00 5.185042652256014462e-01 0.000000000000000000e+00
Cu 1.582660928443099468e+00 6.093624137718056666e-01 0.000000000000000000e+00
Cu 1.583618762546854297e+00 7.005303280965661239e-01 0.000000000000000000e+00
Cu 1.584609747262744062e+00 7.920495701785477127e-01 0.000000000000000000e+00
Cu 1.585594799999997973e+00 8.838501323480030258e-01 0.000000000000000000e+00
Cu 1.712080514825268462e+00 6.353273318653293589e-02 0.000000000000000000e+00
Cu 1.712368925455057811e+00 1.547968164527947499e-01 0.000000000000000000e+00
Cu 1.712923774733553284e+00 2.458727545356002575e-01 0.000000000000000000e+00
Cu 1.713638403632661733e+00 3.366872946066836181e-01 0.000000000000000000e+00
Cu 1.714403247051563550e+00 4.272919124028898286e-01 0.000000000000000000e+00
Cu 1.715117059430999458e+00 5.178476194865034854e-01 0.000000000000000000e+00
Cu 1.715733268698374614e+00 6.085503786098597212e-01 0.000000000000000000e+00
Cu 1.716284542263531110e+00 6.995489513116789349e-01 0.000000000000000000e+00
Cu 1.716848516233451694e+00 7.908969638621073939e-01 0.000000000000000000e+00
Cu 1.717502834168026959e+00 8.825185196178425562e-01 0.000000000000000000e+00
Cu 1.844975468313881928e+00 6.361511261696445318e-02 0.000000000000000000e+00
Cu 1.845512477703429743e+00 1.548474121841431905e-01 0.000000000000000000e+00
Cu 1.846410330880827511e+00 2.458187115604207329e-01 0.000000000000000000e+00
Cu 1.847426116926701889e+00 3.364762472376026659e-01 0.000000000000000000e+00
Cu 1.848324432957874519e+00 4.269121583908305761e-01 0.000000000000000000e+00
Cu 1.848937924453422088e+00 5.172988955633551766e-01 0.000000000000000000e+00
Cu 1.849234913157958848e+00 6.078263950431295193e-01 0.000000000000000000e+00
Cu 1.849326167904119300e+00 6.986561500546515369e-01 0.000000000000000000e+00
Cu 1.849406743868728276e+00 7.898668838820169791e-01 0.000000000000000000e+00
Cu 1.849693889557047166e+00 8.813899019087414466e-01 0.000000000000000000e+00
Cu 1.977796225604286029e+00 6.349070821847324630e-02 0.000000000000000000e+00
Cu 1.978771896799127905e+00 1.547663012286022988e-01 0.000000000000000000e+00
Cu 1.980207081548429615e+00 2.456662623583211469e-01 0.000000000000000000e+00
Cu 1.981664762621675235e+00 3.362019618498843787e-01 0.000000000000000000e+00
Cu 1.982772278323088999e+00 4.265503948561397696e-01 0.000000000000000000e+00
Cu 1.983310876655403066e+00 5.168773800096269078e-01 0.000000000000000000e+00
Cu 1.983254504920215933e+00 6.073005960882628118e-01 0.000000000000000000e+00
Cu 1.982774408486824846e+00 6.979778099102513789e-01 0.000000000000000000e+00
Cu 1.982207037515444581e+00 7.890724338822298067e-01 0.000000000000000000e+00
Cu 1.981964611564945855e+00 8.805789919235795793e-01 0.000000000000000000e+00
Cu 2.110302681640255695e+00 6.288444483378656524e-02 0.000000000000000000e+00
Cu 2.112086090763928059e+00 1.542916959562074253e-01 0.000000000000000000e+00
Cu 2.114389833542008823e+00 2.451154889121995306e-01 0.000000000000000000e+00
Cu 2.116443225054155608e+00 3.355941651284441996e-01 0.000000000000000000e+00
Cu 2.117765753794383254e+00 4.260831510303825787e-01 0.000000000000000000e+00
Cu 2.118252165016890398e+00 5.166554847299269504e-01 0.000000000000000000e+00
Cu 2.117878354139725250e+00 6.072022869514211996e-01 0.000000000000000000e+00
Cu 2.116705191819011844e+00 6.977903648781125234e-01 0.000000000000000000e+00
Cu 2.115180805557507426e+00 7.887640650483190852e-01 0.000000000000000000e+00
Cu 2.114054839798149121e+00 8.803485017099501597e-01 0.000000000000000000e+00
Cu 2.242063218702828209e+00 6.126494767064633029e-02 0.000000000000000000e+00
Cu 2.245465518161293694e+00 1.529068405853767354e-01 0.000000000000000000e+00
Cu 2.249163141442093394e+00 2.436034729911926155e-01 0.000000000000000000e+00
Cu 2.251781691175631650e+00 3.343088142843602117e-01 0.000000000000000000e+00
Cu 2.253163180476403848e+00 4.254238597380328724e-01 0.000000000000000000e+00
Cu 2.253617258833798154e+00 5.166785177820538699e-01 0.000000000000000000e+00
Cu 2.253120077867279303e+00 6.078402560617858219e-01 0.000000000000000000e+00
Cu 2.251317552076352868e+00 6.986333793813364057e-01 0.000000000000000000e+00
Cu 2.248331976087138084e+00 7.894461669512538027e-01 0.000000000000000000e+00
Cu 2.245522610009778486e+00 8.812207668081037948e-01 0.000000000000000000e+00
Cu 2.372053210011977775e+00 5.735415520477681051e-02 0.000000000000000000e+00
Cu 2.379313439456992363e+00 1.493367995012443439e-01 0.000000000000000000e+00
Cu 2.384768162275287651e+00 2.403153833402524586e-01 0.000000000000000000e+00
Cu 2.387347901817793883e+00 3.323258328163514186e-01 0.000000000000000000e+00
Cu 2.388756763993425736e+00 4.245769605500449018e-01 0.000000000000000000e+00
Cu 2.389193291210240933e+00 5.169009449080247398e-01 0.000000000000000000e+00
Cu 2.388635795545153151e+00 6.092008053793646072e-01 0.000000000000000000e+00
Cu 2.386840752784129993e+00 7.012966102386379852e-01 0.000000000000000000e+00
Cu 2.382061611373137211e+00 7.923857693966795956e-01 0.000000000000000000e+00
Cu 2.375341646243163574e+00 8.844741182516718814e-01 0.000000000000000000e+00
Cu 2.496787426162341283e+00 4.490396254065700393e-02 0.000000000000000000e+00
Cu 2.515012932759810305e+00 1.408766987474753263e-01 0.000000000000000000e+00
Cu 2.520050128251005273e+00 2.360273509777743306e-01 0.000000000000000000e+00
Cu 2.522986918879296603e+00 3.301159124702725545e-01 0.000000000000000000e+00
Cu 2.524400632560219737e+00 4.236835931621882323e-01 0.000000000000000000e+00
Cu 2.524828232192896760e+00 5.171382187472882697e-01 0.000000000000000000e+00
Cu 2.524250544172350175e+00 6.107709126492506524e-01 0.000000000000000000e+00
Cu 2.522094115442955253e+00 7.049779332410223143e-01 0.000000000000000000e+00
Cu 2.517739909774074025e+00 8.002681787745198339e-01 0.000000000000000000e+00
Cu 2.500059969425098227e+00 8.963984331963334995e-01 0.000000000000000000e+00
