200

Cu 0.000000000000000000e+00 2.000500163017952544e-03 0.000000000000000000e+00
Cu 0.000000000000000000e+00 1.061452221998243350e-01 0.000000000000000000e+00
Cu 0.000000000000000000e+00 2.104078210748664690e-01 0.000000000000000000e+00
Cu 0.000000000000000000e+00 3.148989467820031973e-01 0.000000000000000000e+00
Cu 0.000000000000000000e+00 4.196575304177265209e-01 0.000000000000000000e+00
Cu 0.000000000000000000e+00 5.246843580962764486e-01 0.000000000000000000e+00
Cu 0.000000000000000000e+00 6.299725195838370428e-01 0.000000000000000000e+00
Cu 0.000000000000000000e+00 7.355168141343221277e-01 0.000000000000000000e+00
Cu 0.000000000000000000e+00 8.413028003267722932e-01 0.000000000000000000e+00
Cu 0.000000000000000000e+00 9.472807794516441282e-01 0.000000000000000000e+00
Cu 1.091563644778303505e-01 3.146943237897148297e-03 0.000000000000000000e+00
Cu 1.081918965617798267e-01 1.067205150967424909e-01 0.000000000000000000e+00
Cu 1.074824368914717165e-01 2.108415119074248945e-01 0.000000000000000000e+00
Cu 1.067980905304374145e-01 3.153110694184688145e-01 0.000000000000000000e+00
Cu 1.061254070962119739e-01 4.200812730489584812e-01 0.000000000000000000e+00
Cu 1.054575108234739461e-01 5.251310025783503255e-01 0.000000000000000000e+00
Cu 1.047839378259938642e-01 6.304443100522547638e-01 0.000000000000000000e+00
Cu 1.040865859874443577e-01 7.360203477461166877e-01 0.000000000000000000e+00
Cu 1.033326113850053518e-01 8.419074381107023441e-01 0.000000000000000000e+00
Cu 1.023058533990804098e-01 9.483212682581350084e-01 0.000000000000000000e+00
Cu 2.181709195303270787e-01 4.603923575557639092e-03 0.000000000000000000e+00
Cu 2.165154990119608214e-01 1.082003946754456214e-01 0.000000000000000000e+00
Cu 2.149812533956474703e-01 2.122109084869367168e-01 0.000000000000000000e+00
Cu 2.135625554593277853e-01 3.166521424143294849e-01 0.000000000000000000e+00
Cu 2.121962704110897380e-01 4.214475329084004240e-01 0.000000000000000000e+00
Cu 2.108586176590180050e-01 5.265479237700704251e-01 0.000000000000000000e+00
Cu 2.095201462546490145e-01 6.319221558750198753e-01 0.000000000000000000e+00
Cu 2.081280021082910492e-01 7.375680431083436739e-01 0.000000000000000000e+00
Cu 2.065752214910223372e-01 8.435413015502387646e-01 0.000000000000000000e+00
Cu 2.047926410334567071e-01 9.498703612356661496e-01 0.000000000000000000e+00
Cu 3.270509972413245259e-01 6.745501370914594279e-03 0.000000000000000000e+00
Cu 3.246971713545894200e-01 1.103862994451167978e-01 0.000000000000000000e+00
Cu 3.224162984509708618e-01 2.144277973365051049e-01 0.000000000000000000e+00
Cu 3.202397361591901581e-01 3.188797001522420960e-01 0.000000000000000000e+00
Cu 3.181627605499187106e-01 4.237161752145074400e-01 0.000000000000000000e+00
Cu 3.161577333651012234e-01 5.288831813914310898e-01 0.000000000000000000e+00
Cu 3.141821427166998082e-01 6.343340713427417787e-01 0.000000000000000000e+00
Cu 3.121548710992407827e-01 7.400395650863235142e-01 0.000000000000000000e+00
Cu 3.099732756194766847e-01 8.459839830992773591e-01 0.000000000000000000e+00
Cu 3.075394132370064537e-01 9.521910752291635749e-01 0.000000000000000000e+00
Cu 4.357740502461296961e-01 9.605043835329594298e-03 0.000000000000000000e+00
Cu 4.326951622949775644e-01 1.133028043855790479e-01 0.000000000000000000e+00
Cu 4.296732028958741290e-01 2.174089904306383270e-01 0.000000000000000000e+00
Cu 4.267583571460562553e-01 3.219242847939455254e-01 0.000000000000000000e+00
Cu 4.239758378419806184e-01 4.268193499596061313e-01 0.000000000000000000e+00
Cu 4.213238140641927254e-01 5.320467122523926395e-01 0.000000000000000000e+00
Cu 4.187690195755537914e-01 6.375500291059723601e-01 0.000000000000000000e+00
Cu 4.162340161945360384e-01 7.432688055743967848e-01 0.000000000000000000e+00
Cu 4.135865700438398629e-01 8.491485172317387864e-01 0.000000000000000000e+00
Cu 4.106596293050609470e-01 9.551834599777243584e-01 0.000000000000000000e+00
Cu 5.443229822606910906e-01 1.320024688675482116e-02 0.000000000000000000e+00
Cu 5.404819044078110757e-01 1.169490869610964046e-01 0.000000000000000000e+00
Cu 5.366953914796921410e-01 2.211255475952691174e-01 0.000000000000000000e+00
Cu 5.330498816386098904e-01 3.257191573116726135e-01 0.000000000000000000e+00
Cu 5.295965892308627243e-01 4.306769341855418154e-01 0.000000000000000000e+00
Cu 5.263517572155348434e-01 5.359263256896585892e-01 0.000000000000000000e+00
Cu 5.233052104632831547e-01 6.414083497716809301e-01 0.000000000000000000e+00
Cu 5.203946513679762464e-01 7.470673185307707964e-01 0.000000000000000000e+00
Cu 5.174691554042918362e-01 8.528433551839709192e-01 0.000000000000000000e+00
Cu 5.142814755697521223e-01 9.586662788188383688e-01 0.000000000000000000e+00
Cu 6.527013266164330973e-01 1.756502675470249936e-02 0.000000000000000000e+00
Cu 6.480419900100866659e-01 1.213405950863095245e-01 0.000000000000000000e+00
Cu 6.434446663640489561e-01 2.255589180493521306e-01 0.000000000000000000e+00
Cu 6.390655165821936823e-01 3.302127432002970320e-01 0.000000000000000000e+00
Cu 6.349973550265040068e-01 4.352073043339933500e-01 0.000000000000000000e+00
Cu 6.312737313286702623e-01 5.404171446967712678e-01 0.000000000000000000e+00
Cu 6.278589738252741137e-01 6.457362888026392245e-01 0.000000000000000000e+00
Cu 6.246923065948105647e-01 7.511896078791527875e-01 0.000000000000000000e+00
Cu 6.216552434217276213e-01 8.567627461725730864e-01 0.000000000000000000e+00
Cu 6.185199911465827372e-01 9.623573147662474181e-01 0.000000000000000000e+00
Cu 7.609158794660555447e-01 2.276973093323318709e-02 0.000000000000000000e+00
Cu 7.553817597432253006e-01 1.265379533995246442e-01 0.000000000000000000e+00
Cu 7.499100538241406655e-01 2.307241472657574066e-01 0.000000000000000000e+00
Cu 7.447619454528037197e-01 3.353558439041894323e-01 0.000000000000000000e+00
Cu 7.401613032216167731e-01 4.403310955807344107e-01 0.000000000000000000e+00
Cu 7.361449358964403666e-01 5.453844228105371172e-01 0.000000000000000000e+00
Cu 7.326093084893262608e-01 6.503952420990628536e-01 0.000000000000000000e+00
Cu 7.292452634927990562e-01 7.553606829513456189e-01 0.000000000000000000e+00
Cu 7.261964483553303706e-01 8.605608049898137990e-01 0.000000000000000000e+00
Cu 7.234680297596197684e-01 9.656646936511339430e-01 0.000000000000000000e+00
Cu 8.689423207785280656e-01 2.888475588546581332e-02 0.000000000000000000e+00
Cu 8.625042928045276724e-01 1.326549699489752987e-01 0.000000000000000000e+00
Cu 8.561354247187153987e-01 2.367330457159973200e-01 0.000000000000000000e+00
Cu 8.501391917402210119e-01 3.411469704351036136e-01 0.000000000000000000e+00
Cu 8.450383101623240023e-01 4.459077642403844188e-01 0.000000000000000000e+00
Cu 8.411500273580480025e-01 5.506433846279832345e-01 0.000000000000000000e+00
Cu 8.377041144662151773e-01 6.550364221987641233e-01 0.000000000000000000e+00
Cu 8.342275013444483411e-01 7.598106315557507928e-01 0.000000000000000000e+00
Cu 2.363381147958385053e+00 7.001572447399486698e-01 0.000000000000000000e+00
Cu 2.343569987403155253e+00 8.030799112940012474e-01 0.000000000000000000e+00
Cu 9.767309845843239469e-01 3.599897994403163104e-02 0.000000000000000000e+00
Cu 9.693230690875770383e-01 1.397657285738021227e-01 0.000000000000000000e+00
Cu 9.621481692760369686e-01 2.438487656098959622e-01 0.000000000000000000e+00
Cu 9.553563491596466228e-01 3.478447145679011698e-01 0.000000000000000000e+00
Cu 9.496756894899186507e-01 4.517992906100959938e-01 0.000000000000000000e+00
Cu 9.467669878371025582e-01 5.552699534659719660e-01 0.000000000000000000e+00
Cu 9.431761073286263342e-01 6.596674755900897580e-01 0.000000000000000000e+00
Cu 2.492639352099164096e+00 6.191037405480174227e-01 0.000000000000000000e+00
Cu 2.471177258447162739e+00 7.204951710451575897e-01 0.000000000000000000e+00
Cu 2.453461367739789623e+00 8.206961247611497257e-01 0.000000000000000000e+00
Cu 1.084166502389333875e+00 4.415969895385075950e-02 0.000000000000000000e+00
Cu 1.075758597556516483e+00 1.480319462696296773e-01 0.000000000000000000e+00
Cu 1.067599820102997255e+00 2.520405594932141335e-01 0.000000000000000000e+00
Cu 1.060418205239742173e+00 3.564494787992552594e-01 0.000000000000000000e+00
Cu 2.672332485779613798e+00 3.365181086992563020e-01 0.000000000000000000e+00
Cu 2.641533384130296813e+00 4.363506813729319256e-01 0.000000000000000000e+00
Cu 2.624451496296405395e+00 5.390638099581540610e-01 0.000000000000000000e+00
Cu 2.602184442017304367e+00 6.391927636886308717e-01 0.000000000000000000e+00
Cu 2.584094618715739866e+00 7.382554911927649011e-01 0.000000000000000000e+00
Cu 2.569067156186526368e+00 8.363391330595798534e-01 0.000000000000000000e+00
Cu 1.191166688833381171e+00 5.358629823597482050e-02 0.000000000000000000e+00
Cu 1.181495870321898733e+00 1.574463048439047330e-01 0.000000000000000000e+00
Cu 1.172609384388980658e+00 2.618516198424894470e-01 0.000000000000000000e+00
Cu 2.805832610716172404e+00 2.615909269582767371e-01 0.000000000000000000e+00
Cu 2.778244691777724373e+00 3.617929056862417836e-01 0.000000000000000000e+00
Cu 2.758419321052509421e+00 4.607004945659429751e-01 0.000000000000000000e+00
Cu 2.735103089017626221e+00 5.577553784071461740e-01 0.000000000000000000e+00
Cu 2.717466110178764271e+00 6.562708856831304116e-01 0.000000000000000000e+00
Cu 2.701995546966114325e+00 7.531816116282122886e-01 0.000000000000000000e+00
Cu 2.689530004233259497e+00 8.492747657932506744e-01 0.000000000000000000e+00
Cu 1.297443638892912254e+00 6.424465509699607557e-02 0.000000000000000000e+00
Cu 1.286608504968648203e+00 1.685246922472551367e-01 0.000000000000000000e+00
Cu 2.942515062751618338e+00 1.885563797066711345e-01 0.000000000000000000e+00
Cu 2.914664903212356162e+00 2.869296877487209074e-01 0.000000000000000000e+00
Cu 2.892078058826544229e+00 3.837441337383438178e-01 0.000000000000000000e+00
Cu 2.872126165388193542e+00 4.801163224070706392e-01 0.000000000000000000e+00
Cu 2.853738948418981902e+00 5.758950135686158323e-01 0.000000000000000000e+00
Cu 2.837659974332851220e+00 6.706184369237642162e-01 0.000000000000000000e+00
Cu 2.824587078153588227e+00 7.654126258438120889e-01 0.000000000000000000e+00
Cu 2.814166282271650221e+00 8.596527045488289165e-01 0.000000000000000000e+00
Cu 1.402976052381460281e+00 7.702064713476429458e-02 0.000000000000000000e+00
Cu 3.079417521103029021e+00 1.171012284499613476e-01 0.000000000000000000e+00
Cu 3.052873175889205370e+00 2.144949614027536755e-01 0.000000000000000000e+00
Cu 3.030560110419615594e+00 3.097073444147437349e-01 0.000000000000000000e+00
Cu 3.010910153788038723e+00 4.035802829622200938e-01 0.000000000000000000e+00
Cu 2.993182694179172820e+00 4.969733560894089019e-01 0.000000000000000000e+00
Cu 2.977175590454686827e+00 5.900095822686508562e-01 0.000000000000000000e+00
Cu 2.963080645845483474e+00 6.827355070171229334e-01 0.000000000000000000e+00
Cu 2.951351550965260362e+00 7.753226923245570834e-01 0.000000000000000000e+00
Cu 2.942481500924738036e+00 8.678570028086379784e-01 0.000000000000000000e+00
Cu 3.213347536817519057e+00 4.493662089561631379e-02 0.000000000000000000e+00
Cu 3.190929915316848664e+00 1.422984629371291387e-01 0.000000000000000000e+00
Cu 3.170774871651262039e+00 2.365053533845559441e-01 0.000000000000000000e+00
Cu 3.152589857845500276e+00 3.288693835141479060e-01 0.000000000000000000e+00
Cu 3.135805143703291886e+00 4.202269879296257615e-01 0.000000000000000000e+00
Cu 3.120115654323681653e+00 5.110794860969061215e-01 0.000000000000000000e+00
Cu 3.105632229657131038e+00 6.017731356058937386e-01 0.000000000000000000e+00
Cu 3.092720227847073122e+00 6.924984912429208439e-01 0.000000000000000000e+00
Cu 3.081955296564409252e+00 7.833698471539221053e-01 0.000000000000000000e+00
Cu 3.074007501891988348e+00 8.743660992112526342e-01 0.000000000000000000e+00
Cu 3.325584443359189901e+00 6.601925807695246951e-02 0.000000000000000000e+00
Cu 3.310250599432833951e+00 1.615089023664207923e-01 0.000000000000000000e+00
Cu 3.295194772077020495e+00 2.538357029495892370e-01 0.000000000000000000e+00
Cu 3.280601930603219696e+00 3.442445695405226824e-01 0.000000000000000000e+00
Cu 3.266270566098730566e+00 4.336977749560521067e-01 0.000000000000000000e+00
Cu 3.252199049628344607e+00 5.227426125572977034e-01 0.000000000000000000e+00
Cu 3.238688904177217331e+00 6.116518057051110180e-01 0.000000000000000000e+00
Cu 3.226316161372949409e+00 7.006695997495397954e-01 0.000000000000000000e+00
Cu 3.215879054523155478e+00 7.900253751735825114e-01 0.000000000000000000e+00
Cu 3.208315801146760737e+00 8.797451622939672644e-01 0.000000000000000000e+00
Cu 3.446213161929944313e+00 8.281055413759129402e-02 0.000000000000000000e+00
Cu 3.436066440084288409e+00 1.761135614191293441e-01 0.000000000000000000e+00
Cu 3.425549000190124094e+00 2.668959380995990505e-01 0.000000000000000000e+00
Cu 3.414125746140614481e+00 3.559758552762528616e-01 0.000000000000000000e+00
Cu 3.401744800614759701e+00 4.443750226023168159e-01 0.000000000000000000e+00
Cu 3.388859644593445353e+00 5.325060385678195285e-01 0.000000000000000000e+00
Cu 3.375968032815831688e+00 6.203412259612225421e-01 0.000000000000000000e+00
Cu 3.363612982786087002e+00 7.080214775835058649e-01 0.000000000000000000e+00
Cu 3.352785510361818044e+00 7.960326741347265589e-01 0.000000000000000000e+00
Cu 3.344878933560453405e+00 8.846903733995926666e-01 0.000000000000000000e+00
Cu 3.573409319952949748e+00 9.547451604204792996e-02 0.000000000000000000e+00
Cu 3.568131663288680144e+00 1.868267001314431741e-01 0.000000000000000000e+00
Cu 3.561777688307742551e+00 2.760477825252314332e-01 0.000000000000000000e+00
Cu 3.552779385116689781e+00 3.644930916895732786e-01 0.000000000000000000e+00
Cu 3.541604827442389247e+00 4.528879505504251335e-01 0.000000000000000000e+00
Cu 3.529510577999626975e+00 5.410337035183213628e-01 0.000000000000000000e+00
Cu 3.517158271349682952e+00 6.287420948256264852e-01 0.000000000000000000e+00
Cu 3.504555508473901071e+00 7.156409946217064943e-01 0.000000000000000000e+00
Cu 3.492429081101581456e+00 8.023814022547988145e-01 0.000000000000000000e+00
Cu 3.482974982790239871e+00 8.902114603656993141e-01 0.000000000000000000e+00
Cu 3.705099145024923768e+00 1.026053835374168416e-01 0.000000000000000000e+00
Cu 3.706635133588874531e+00 1.925745856688416413e-01 0.000000000000000000e+00
Cu 3.704103275756645441e+00 2.811268093855517347e-01 0.000000000000000000e+00
Cu 3.695793069520943330e+00 3.707305590114721161e-01 0.000000000000000000e+00
Cu 3.685315514274720261e+00 4.601253203012449222e-01 0.000000000000000000e+00
Cu 3.673693292686272205e+00 5.490287191826618285e-01 0.000000000000000000e+00
Cu 3.661591251178153428e+00 6.373625644627796127e-01 0.000000000000000000e+00
Cu 3.649436998183150482e+00 7.250731910739440789e-01 0.000000000000000000e+00
Cu 3.634975569189751177e+00 8.108604996291672862e-01 0.000000000000000000e+00
Cu 3.621034755436437713e+00 8.981008294364899447e-01 0.000000000000000000e+00
Cu 3.835589773082007881e+00 9.543689116511955284e-02 0.000000000000000000e+00
Cu 3.854015366480796789e+00 1.899645239183347656e-01 0.000000000000000000e+00
Cu 3.850340260857933128e+00 2.839926225835758822e-01 0.000000000000000000e+00
Cu 3.842770138521214296e+00 3.763404003200955250e-01 0.000000000000000000e+00
Cu 3.832489069669553494e+00 4.672020700756824296e-01 0.000000000000000000e+00
Cu 3.821095776635966335e+00 5.570388074500846054e-01 0.000000000000000000e+00
Cu 3.809235637993066970e+00 6.462643009185792264e-01 0.000000000000000000e+00
Cu 3.796506401593986002e+00 7.355104391748410464e-01 0.000000000000000000e+00
Cu 3.783226871987877882e+00 8.259101434164873856e-01 0.000000000000000000e+00
Cu 3.752716216146815054e+00 9.159133155464125320e-01 0.000000000000000000e+00
