200

Cu 0.000000000000000000e+00 1.280104702968553818e-02 0.000000000000000000e+00
Cu 0.000000000000000000e+00 1.179323513924729894e-01 0.000000000000000000e+00
Cu 0.000000000000000000e+00 2.230850949113498127e-01 0.000000000000000000e+00
Cu 0.000000000000000000e+00 3.282722350089185559e-01 0.000000000000000000e+00
Cu 0.000000000000000000e+00 4.334970946158915872e-01 0.000000000000000000e+00
Cu 0.000000000000000000e+00 5.387580811635039879e-01 0.000000000000000000e+00
Cu 0.000000000000000000e+00 6.440526486447653021e-01 0.000000000000000000e+00
Cu 0.000000000000000000e+00 7.493785690562156931e-01 0.000000000000000000e+00
Cu 0.000000000000000000e+00 8.547323925629183305e-01 0.000000000000000000e+00
Cu 0.000000000000000000e+00 9.601061761500354619e-01 0.000000000000000000e+00
Cu 1.057518449642489283e-01 1.294890426887698037e-02 0.000000000000000000e+00
Cu 1.056202604636394954e-01 1.180070677991409273e-01 0.000000000000000000e+00
Cu 1.055228412747904881e-01 2.231423540571102759e-01 0.000000000000000000e+00
Cu 1.054298572961206992e-01 3.283273144349208028e-01 0.000000000000000000e+00
Cu 1.053395102517478144e-01 4.335541613482900569e-01 0.000000000000000000e+00
Cu 1.052509300406873904e-01 5.388185086516434907e-01 0.000000000000000000e+00
Cu 1.051626655922422993e-01 6.441167041507014357e-01 0.000000000000000000e+00
Cu 1.050721340398886733e-01 7.494472598564040355e-01 0.000000000000000000e+00
Cu 1.049746861895606981e-01 8.548156722509655525e-01 0.000000000000000000e+00
Cu 1.048399409690946582e-01 9.602508277718080354e-01 0.000000000000000000e+00
Cu 2.114864087156461125e-01 1.313982808759852315e-02 0.000000000000000000e+00
Cu 2.112586550916193684e-01 1.182027429889939141e-01 0.000000000000000000e+00
Cu 2.110486552919638714e-01 2.233246683207406602e-01 0.000000000000000000e+00
Cu 2.108561118121522193e-01 3.285067186429702635e-01 0.000000000000000000e+00
Cu 2.106728430928244133e-01 4.337374135532245933e-01 0.000000000000000000e+00
Cu 2.104956501843504857e-01 5.390087621581881594e-01 0.000000000000000000e+00
Cu 2.103204379098737864e-01 6.443152444061930328e-01 0.000000000000000000e+00
Cu 2.101397969976008528e-01 7.496554660994442232e-01 0.000000000000000000e+00
Cu 2.099387401932346353e-01 8.550362291248966295e-01 0.000000000000000000e+00
Cu 2.097072617733475863e-01 9.604607505822440050e-01 0.000000000000000000e+00
Cu 3.172048566105538647e-01 1.342375508674779200e-02 0.000000000000000000e+00
Cu 3.168801787809621962e-01 1.184934950451772828e-01 0.000000000000000000e+00
Cu 3.165680626272905362e-01 2.236206431870123301e-01 0.000000000000000000e+00
Cu 3.162730692757386164e-01 3.288049235073656762e-01 0.000000000000000000e+00
Cu 3.159948586576393215e-01 4.340415120134843430e-01 0.000000000000000000e+00
Cu 3.157297080105233023e-01 5.393218208509132916e-01 0.000000000000000000e+00
Cu 3.154716094925555936e-01 6.446383655752601083e-01 0.000000000000000000e+00
Cu 3.152091266191496821e-01 7.499863068436088964e-01 0.000000000000000000e+00
Cu 3.149277417808862833e-01 8.553628894571900787e-01 0.000000000000000000e+00
Cu 3.146136558679492601e-01 9.607707103763043488e-01 0.000000000000000000e+00
Cu 4.229050966856870986e-01 1.380406823136572439e-02 0.000000000000000000e+00
Cu 4.224803887320990881e-01 1.188826902792548407e-01 0.000000000000000000e+00
Cu 4.220671449288618815e-01 2.240194035444678100e-01 0.000000000000000000e+00
Cu 4.216726289323479149e-01 3.292127703488941237e-01 0.000000000000000000e+00
Cu 4.213004987099095433e-01 4.344573540014663449e-01 0.000000000000000000e+00
Cu 4.209504912905973617e-01 5.397454110043536923e-01 0.000000000000000000e+00
Cu 4.206176849784880045e-01 6.450681545861987054e-01 0.000000000000000000e+00
Cu 4.202908465355474354e-01 7.504166043704534328e-01 0.000000000000000000e+00
Cu 4.199512512420072730e-01 8.557830608763032920e-01 0.000000000000000000e+00
Cu 4.195754943584240060e-01 9.611667758764406155e-01 0.000000000000000000e+00
Cu 5.285858752959847751e-01 1.428278183025259371e-02 0.000000000000000000e+00
Cu 5.280566665180023156e-01 1.193699150948229204e-01 0.000000000000000000e+00
Cu 5.275396229468886089e-01 2.245171769146795393e-01 0.000000000000000000e+00
Cu 5.270470152227603178e-01 3.297214458642253043e-01 0.000000000000000000e+00
Cu 5.265860017105385982e-01 4.349740872327742536e-01 0.000000000000000000e+00
Cu 5.261586615966812319e-01 5.402640158526108571e-01 0.000000000000000000e+00
Cu 5.257631296510559826e-01 6.455821792557299155e-01 0.000000000000000000e+00
Cu 5.253898893963293570e-01 7.509202583580185664e-01 0.000000000000000000e+00
Cu 5.250172475784725679e-01 8.562701696944351459e-01 0.000000000000000000e+00
Cu 5.246106096785411177e-01 9.616232658248318188e-01 0.000000000000000000e+00
Cu 6.342489473644905562e-01 1.486390309242625538e-02 0.000000000000000000e+00
Cu 6.336081727469694558e-01 1.199569606160560409e-01 0.000000000000000000e+00
Cu 6.329816301805447631e-01 2.251114609974249336e-01 0.000000000000000000e+00
Cu 6.323910783383396295e-01 3.303241501904976007e-01 0.000000000000000000e+00
Cu 6.318490616442145047e-01 4.355805748754754680e-01 0.000000000000000000e+00
Cu 6.313598097734008929e-01 5.408628028076908345e-01 0.000000000000000000e+00
Cu 6.309177169973391175e-01 6.461559707936923580e-01 0.000000000000000000e+00
Cu 6.305138471321901639e-01 7.514632708970981900e-01 0.000000000000000000e+00
Cu 6.301303063342984512e-01 8.567823077072252991e-01 0.000000000000000000e+00
Cu 6.297342357015831560e-01 9.621009683997993056e-01 0.000000000000000000e+00
Cu 7.398969108585601306e-01 1.555635403304520513e-02 0.000000000000000000e+00
Cu 7.391372753187660516e-01 1.206514382911694216e-01 0.000000000000000000e+00
Cu 7.383930343734976809e-01 2.258041472647862868e-01 0.000000000000000000e+00
Cu 7.377003373079232817e-01 3.310144436868313056e-01 0.000000000000000000e+00
Cu 7.370888662141570347e-01 4.362660252102769087e-01 0.000000000000000000e+00
Cu 7.365623753039437505e-01 5.415226542801105936e-01 0.000000000000000000e+00
Cu 7.361061487330846642e-01 6.467691897037434190e-01 0.000000000000000000e+00
Cu 7.356775302797158300e-01 7.520066324412829628e-01 0.000000000000000000e+00
Cu 7.352969998354514924e-01 8.572720675904160759e-01 0.000000000000000000e+00
Cu 7.349565055698616955e-01 9.625206641925397877e-01 0.000000000000000000e+00
Cu 8.455284005447863960e-01 1.636914082049014188e-02 0.000000000000000000e+00
Cu 8.446465146744643882e-01 1.214682636990601639e-01 0.000000000000000000e+00
Cu 8.437813424035012222e-01 2.266092438716905133e-01 0.000000000000000000e+00
Cu 8.429761423405199849e-01 3.317922271980289772e-01 0.000000000000000000e+00
Cu 8.423000282183283893e-01 4.370114846244823603e-01 0.000000000000000000e+00
Cu 8.417918982550920415e-01 5.422173107865102537e-01 0.000000000000000000e+00
Cu 8.413473255580365961e-01 6.473738473201053889e-01 0.000000000000000000e+00
Cu 8.409065724282938081e-01 7.525803654077637406e-01 0.000000000000000000e+00
Cu 4.157450545731487423e+00 6.779740647263672315e-01 0.000000000000000000e+00
Cu 4.134059705065240564e+00 7.800255352871879877e-01 0.000000000000000000e+00
Cu 9.511390046917007624e-01 1.731460870141653466e-02 0.000000000000000000e+00
Cu 9.501262095822450293e-01 1.224176884387619263e-01 0.000000000000000000e+00
Cu 9.491538705558948408e-01 2.275619088534188150e-01 0.000000000000000000e+00
Cu 9.482410670803707031e-01 3.326886387691683766e-01 0.000000000000000000e+00
Cu 9.474912260353994808e-01 4.377985086105562473e-01 0.000000000000000000e+00
Cu 9.471083827839977820e-01 5.428201916355097634e-01 0.000000000000000000e+00
Cu 9.466463724879662367e-01 6.479718027735870134e-01 0.000000000000000000e+00
Cu 4.290634474681844779e+00 6.019848176604259971e-01 0.000000000000000000e+00
Cu 4.265390402965386407e+00 7.021121648840283891e-01 0.000000000000000000e+00
Cu 4.244620843314913294e+00 8.009828471351003731e-01 0.000000000000000000e+00
Cu 1.056714994632869553e+00 1.839980493936275302e-02 0.000000000000000000e+00
Cu 1.055568725997131141e+00 1.235233550180045298e-01 0.000000000000000000e+00
Cu 1.054464413669960798e+00 2.286604141498230214e-01 0.000000000000000000e+00
Cu 1.053507923412349889e+00 3.338399963396760928e-01 0.000000000000000000e+00
Cu 4.482307390141731851e+00 3.275722127185917709e-01 0.000000000000000000e+00
Cu 4.446615732333702553e+00 4.254559437374982322e-01 0.000000000000000000e+00
Cu 4.426784262159827676e+00 5.272633799231628560e-01 0.000000000000000000e+00
Cu 4.400699924081927783e+00 6.257804763225874867e-01 0.000000000000000000e+00
Cu 4.379583170976628637e+00 7.232560153211147203e-01 0.000000000000000000e+00
Cu 4.362039345594705964e+00 8.196871231510522993e-01 0.000000000000000000e+00
Cu 1.162248993669062092e+00 1.965718864143411321e-02 0.000000000000000000e+00
Cu 1.160932136853599639e+00 1.247875112444139789e-01 0.000000000000000000e+00
Cu 1.159738031522077772e+00 2.299817350347420075e-01 0.000000000000000000e+00
Cu 4.619655334084828979e+00 2.582006458939014593e-01 0.000000000000000000e+00
Cu 4.587919462251693226e+00 3.567944443560584489e-01 0.000000000000000000e+00
Cu 4.565259473663084933e+00 4.541994660780598325e-01 0.000000000000000000e+00
Cu 4.538240663810386266e+00 5.491649673283167665e-01 0.000000000000000000e+00
Cu 4.517763332225222861e+00 6.460335633517738652e-01 0.000000000000000000e+00
Cu 4.499749594599755653e+00 7.410447179895642833e-01 0.000000000000000000e+00
Cu 4.485246494574968601e+00 8.352235316241631846e-01 0.000000000000000000e+00
Cu 1.267702533687129263e+00 2.108414286909721796e-02 0.000000000000000000e+00
Cu 1.266235458823588234e+00 1.262834606880060551e-01 0.000000000000000000e+00
Cu 4.760480353524937591e+00 1.907219507695116500e-01 0.000000000000000000e+00
Cu 4.728779086496324169e+00 2.872964770159372461e-01 0.000000000000000000e+00
Cu 4.703113921758050431e+00 3.822371169714663952e-01 0.000000000000000000e+00
Cu 4.680288548602125509e+00 4.766654430855442048e-01 0.000000000000000000e+00
Cu 4.659180850550483477e+00 5.704322569473724291e-01 0.000000000000000000e+00
Cu 4.640613924207623420e+00 6.629633658182549905e-01 0.000000000000000000e+00
Cu 4.625477062413963836e+00 7.556339642903261433e-01 0.000000000000000000e+00
Cu 4.613371371446524094e+00 8.477290153726934063e-01 0.000000000000000000e+00
Cu 1.373088001948621129e+00 2.280954106960919950e-02 0.000000000000000000e+00
Cu 4.901361246641717351e+00 1.246477385534458387e-01 0.000000000000000000e+00
Cu 4.871469667077451327e+00 2.201949236745935901e-01 0.000000000000000000e+00
Cu 4.846394254826466685e+00 3.133616563578884295e-01 0.000000000000000000e+00
Cu 4.824188394131022406e+00 4.050010681439317195e-01 0.000000000000000000e+00
Cu 4.804048518581926608e+00 4.961288970009439248e-01 0.000000000000000000e+00
Cu 4.785760318169827165e+00 5.868494179523953136e-01 0.000000000000000000e+00
Cu 4.769587862986174542e+00 6.772120128078124024e-01 0.000000000000000000e+00
Cu 4.756068559319039935e+00 7.674268652112483657e-01 0.000000000000000000e+00
Cu 4.745808027179791111e+00 8.576292657680455456e-01 0.000000000000000000e+00
Cu 5.038663964916523241e+00 5.734766807519414700e-02 0.000000000000000000e+00
Cu 5.013860977163758115e+00 1.529825955635955859e-01 0.000000000000000000e+00
Cu 4.991545769165252722e+00 2.450402906948834780e-01 0.000000000000000000e+00
Cu 4.971247401329354609e+00 3.350163577537996207e-01 0.000000000000000000e+00
Cu 4.952381562448137764e+00 4.239107084909076173e-01 0.000000000000000000e+00
Cu 4.934633180301426059e+00 5.122563331849373514e-01 0.000000000000000000e+00
Cu 4.918175939268715879e+00 6.004238072485671429e-01 0.000000000000000000e+00
Cu 4.903446686753888173e+00 6.886114155524831748e-01 0.000000000000000000e+00
Cu 4.891123169143982707e+00 7.769547114843269320e-01 0.000000000000000000e+00
Cu 4.881990559690136955e+00 8.654528095340469074e-01 0.000000000000000000e+00
Cu 5.152250045402984036e+00 8.057134382187340627e-02 0.000000000000000000e+00
Cu 5.135796331985064356e+00 1.742407877958681572e-01 0.000000000000000000e+00
Cu 5.119297530467116886e+00 2.642493644541376585e-01 0.000000000000000000e+00
Cu 5.103089832494029920e+00 3.521421854346836744e-01 0.000000000000000000e+00
Cu 5.087015694854703618e+00 4.389954895023944759e-01 0.000000000000000000e+00
Cu 5.071152302624549080e+00 5.254080903942539571e-01 0.000000000000000000e+00
Cu 5.055878619609740277e+00 6.116662987419000386e-01 0.000000000000000000e+00
Cu 5.041864516320845979e+00 6.980281586434096130e-01 0.000000000000000000e+00
Cu 5.030023108065723392e+00 7.847395740672397091e-01 0.000000000000000000e+00
Cu 5.021433627127517951e+00 8.718333123432703280e-01 0.000000000000000000e+00
Cu 5.275895197930983826e+00 9.883960069824231087e-02 0.000000000000000000e+00
Cu 5.265332762247417087e+00 1.900415081662501504e-01 0.000000000000000000e+00
Cu 5.253943347300563893e+00 2.784585657770358713e-01 0.000000000000000000e+00
Cu 5.241281154686306287e+00 3.649889519540295835e-01 0.000000000000000000e+00
Cu 5.227419317956510270e+00 4.507538365203073161e-01 0.000000000000000000e+00
Cu 5.212932886479725525e+00 5.362133719058046477e-01 0.000000000000000000e+00
Cu 5.198418919421826878e+00 6.213444920519237691e-01 0.000000000000000000e+00
Cu 5.184522087457420270e+00 7.063037064137129839e-01 0.000000000000000000e+00
Cu 5.172370526942176028e+00 7.915970106010681295e-01 0.000000000000000000e+00
Cu 5.163547041339108468e+00 8.775336898794546814e-01 0.000000000000000000e+00
Cu 5.407351616678604422e+00 1.124235648109801616e-01 0.000000000000000000e+00
Cu 5.402098152344484205e+00 2.014415134195533807e-01 0.000000000000000000e+00
Cu 5.395304806580808687e+00 2.882403775314471561e-01 0.000000000000000000e+00
Cu 5.385389871408000850e+00 3.741495764575348271e-01 0.000000000000000000e+00
Cu 5.372909725027385619e+00 4.599472140299088463e-01 0.000000000000000000e+00
Cu 5.359339388970798979e+00 5.454373417911403399e-01 0.000000000000000000e+00
Cu 5.345471644002599554e+00 6.304601183194811220e-01 0.000000000000000000e+00
Cu 5.331326965600696077e+00 7.145965641227204346e-01 0.000000000000000000e+00
Cu 5.317857660253912933e+00 7.985770923269888133e-01 0.000000000000000000e+00
Cu 5.307527924727278190e+00 8.836425204986353421e-01 0.000000000000000000e+00
Cu 5.544188485316436932e+00 1.199272913517663575e-01 0.000000000000000000e+00
Cu 5.546126215369620027e+00 2.074652226980708281e-01 0.000000000000000000e+00
Cu 5.543742550936618940e+00 2.935190925028370867e-01 0.000000000000000000e+00
Cu 5.534590337735578736e+00 3.807033890493355943e-01 0.000000000000000000e+00
Cu 5.522954073764693383e+00 4.675932453519803245e-01 0.000000000000000000e+00
Cu 5.509929502493697839e+00 5.539083178407933072e-01 0.000000000000000000e+00
Cu 5.496300205875895628e+00 6.395796498412263942e-01 0.000000000000000000e+00
Cu 5.482728651839194001e+00 7.246282361645848269e-01 0.000000000000000000e+00
Cu 5.466527664421676036e+00 8.074855805582747958e-01 0.000000000000000000e+00
Cu 5.451645036075938755e+00 8.920219561532281016e-01 0.000000000000000000e+00
Cu 5.679308743979511576e+00 1.121726784648019171e-01 0.000000000000000000e+00
Cu 5.700805802933771815e+00 2.043490874846531635e-01 0.000000000000000000e+00
Cu 5.696796916014711165e+00 2.963381213440170470e-01 0.000000000000000000e+00
Cu 5.688607450093803308e+00 3.864762656740290403e-01 0.000000000000000000e+00
Cu 5.677149617455424568e+00 4.749394640499819964e-01 0.000000000000000000e+00
Cu 5.664362322917298798e+00 5.622569637298449052e-01 0.000000000000000000e+00
Cu 5.651034550879503904e+00 6.488754471618918274e-01 0.000000000000000000e+00
Cu 5.636653821700463141e+00 7.354606534945232754e-01 0.000000000000000000e+00
Cu 5.622181939294363495e+00 8.234092267990260616e-01 0.000000000000000000e+00
Cu 5.588196756582146207e+00 9.103962736088665464e-01 0.000000000000000000e+00
