200

Cu 0.000000000000000000e+00 1.674288328956001839e-02 0.000000000000000000e+00
Cu 0.000000000000000000e+00 1.187142938745547882e-01 0.000000000000000000e+00
Cu 0.000000000000000000e+00 2.202101986731474503e-01 0.000000000000000000e+00
Cu 0.000000000000000000e+00 3.215002802124613535e-01 0.000000000000000000e+00
Cu 0.000000000000000000e+00 4.227293840639400058e-01 0.000000000000000000e+00
Cu 0.000000000000000000e+00 5.239651742599535922e-01 0.000000000000000000e+00
Cu 0.000000000000000000e+00 6.252592666894304374e-01 0.000000000000000000e+00
Cu 0.000000000000000000e+00 7.266720132550237299e-01 0.000000000000000000e+00
Cu 0.000000000000000000e+00 8.283321008603483637e-01 0.000000000000000000e+00
Cu 0.000000000000000000e+00 9.304834965908966860e-01 0.000000000000000000e+00
Cu 1.150081700559575093e-01 1.883343551800320190e-02 0.000000000000000000e+00
Cu 1.143272210365530728e-01 1.194327991615250356e-01 0.000000000000000000e+00
Cu 1.142535135680113473e-01 2.205146590799666462e-01 0.000000000000000000e+00
Cu 1.142049596490001678e-01 3.216503648472720522e-01 0.000000000000000000e+00
Cu 1.141487348411834857e-01 4.227854165556453325e-01 0.000000000000000000e+00
Cu 1.140805231727405888e-01 5.239433805711207759e-01 0.000000000000000000e+00
Cu 1.140037245917147751e-01 6.251488410306860199e-01 0.000000000000000000e+00
Cu 1.139285691067901812e-01 7.264168346334842763e-01 0.000000000000000000e+00
Cu 1.138904550870840082e-01 8.276866332039423124e-01 0.000000000000000000e+00
Cu 1.144429082620406352e-01 9.285441166060155460e-01 0.000000000000000000e+00
Cu 2.297485499948327958e-01 1.985454777887682085e-02 0.000000000000000000e+00
Cu 2.291178804986947481e-01 1.204073745862565686e-01 0.000000000000000000e+00
Cu 2.287491343943115485e-01 2.211021589964514145e-01 0.000000000000000000e+00
Cu 2.285775982332770295e-01 3.219890184997137861e-01 0.000000000000000000e+00
Cu 2.284337540568400493e-01 4.229487065131120604e-01 0.000000000000000000e+00
Cu 2.282912251507407952e-01 5.239520336368738151e-01 0.000000000000000000e+00
Cu 2.281626079369059867e-01 6.249893957049719173e-01 0.000000000000000000e+00
Cu 2.280857508444147641e-01 7.260153940374527437e-01 0.000000000000000000e+00
Cu 2.282179295754100390e-01 8.269103315680441657e-01 0.000000000000000000e+00
Cu 2.286173783359302936e-01 9.277278477145676217e-01 0.000000000000000000e+00
Cu 3.444516933568586015e-01 2.066977346307997260e-02 0.000000000000000000e+00
Cu 3.438901582147164682e-01 1.211967371941100186e-01 0.000000000000000000e+00
Cu 3.434652862500282566e-01 2.217887767899337503e-01 0.000000000000000000e+00
Cu 3.431732572322863106e-01 3.224724457046677095e-01 0.000000000000000000e+00
Cu 3.429384376201040641e-01 4.232215727823819273e-01 0.000000000000000000e+00
Cu 3.427101254234989347e-01 5.240064641939412571e-01 0.000000000000000000e+00
Cu 3.425286833922704388e-01 6.248263927992545597e-01 0.000000000000000000e+00
Cu 3.424590977443145445e-01 7.256395614541190087e-01 0.000000000000000000e+00
Cu 3.425280102738804122e-01 8.264235205574484988e-01 0.000000000000000000e+00
Cu 3.427326493289598042e-01 9.272215217514270247e-01 0.000000000000000000e+00
Cu 4.592016463594841280e-01 2.139772864036187244e-02 0.000000000000000000e+00
Cu 4.586885426312194980e-01 1.218911957924623118e-01 0.000000000000000000e+00
Cu 4.582794516857717215e-01 2.224316977741210566e-01 0.000000000000000000e+00
Cu 4.579684503386378114e-01 3.230174334509180456e-01 0.000000000000000000e+00
Cu 4.577121475458881816e-01 4.236147055283348561e-01 0.000000000000000000e+00
Cu 4.574087486159948979e-01 5.241545840189475447e-01 0.000000000000000000e+00
Cu 4.571021600385091199e-01 6.247177990455754504e-01 0.000000000000000000e+00
Cu 4.569308156609309668e-01 7.253976541519076005e-01 0.000000000000000000e+00
Cu 4.568635307714776772e-01 8.261559277271874890e-01 0.000000000000000000e+00
Cu 4.568443617458349260e-01 9.269504564177708517e-01 0.000000000000000000e+00
Cu 5.740442404438202972e-01 2.207980656179230061e-02 0.000000000000000000e+00
Cu 5.735658637414655647e-01 1.225189192806879906e-01 0.000000000000000000e+00
Cu 5.731864203193254292e-01 2.230093208653904646e-01 0.000000000000000000e+00
Cu 5.729072584982731753e-01 3.235425608651169571e-01 0.000000000000000000e+00
Cu 5.726993394990390618e-01 4.240816706047857987e-01 0.000000000000000000e+00
Cu 5.724916455326981568e-01 5.245374164787256488e-01 0.000000000000000000e+00
Cu 5.719605305907834447e-01 6.247246361715388385e-01 0.000000000000000000e+00
Cu 5.714268418803397642e-01 7.252014092841549964e-01 0.000000000000000000e+00
Cu 5.712046236027080726e-01 8.261038005636046622e-01 0.000000000000000000e+00
Cu 5.709762552417462222e-01 9.270235701146047891e-01 0.000000000000000000e+00
Cu 6.890250969868666475e-01 2.273110690733850733e-02 0.000000000000000000e+00
Cu 6.885688233391379365e-01 1.230914150349518010e-01 0.000000000000000000e+00
Cu 6.882117260053776109e-01 2.235118908095490853e-01 0.000000000000000000e+00
Cu 6.879637479898013108e-01 3.239907588245523051e-01 0.000000000000000000e+00
Cu 6.878275820822443709e-01 4.245154482890047265e-01 0.000000000000000000e+00
Cu 6.877382552020586681e-01 5.250353286695346178e-01 0.000000000000000000e+00
Cu 6.876393817768049477e-01 6.254020431522475665e-01 0.000000000000000000e+00
Cu 6.860315958594169761e-01 7.247790030397203154e-01 0.000000000000000000e+00
Cu 6.849463162889943835e-01 8.261313988235323702e-01 0.000000000000000000e+00
Cu 6.854334557923947857e-01 9.275857902477669947e-01 0.000000000000000000e+00
Cu 8.041921157342469817e-01 2.336486846198773670e-02 0.000000000000000000e+00
Cu 8.037454431136467070e-01 1.236197991384862666e-01 0.000000000000000000e+00
Cu 8.033964882878393832e-01 2.239400430315134916e-01 0.000000000000000000e+00
Cu 8.031631596548796104e-01 3.243299143731678269e-01 0.000000000000000000e+00
Cu 8.030531553450983573e-01 4.247982170167678984e-01 0.000000000000000000e+00
Cu 8.030897015109325077e-01 5.253654728532253237e-01 0.000000000000000000e+00
Cu 8.030872528452552839e-01 6.260570514674527187e-01 0.000000000000000000e+00
Cu 8.036039455127993447e-01 7.269120095393658554e-01 0.000000000000000000e+00
Cu 7.953839134249124365e-01 8.247367503822092827e-01 0.000000000000000000e+00
Cu 8.018689822933059430e-01 9.265043972574903419e-01 0.000000000000000000e+00
Cu 9.195931118280055161e-01 2.399682797133672815e-02 0.000000000000000000e+00
Cu 9.191452133870842145e-01 1.241199856505050408e-01 0.000000000000000000e+00
Cu 9.187955774124022534e-01 2.243052612356823960e-01 0.000000000000000000e+00
Cu 9.185632769049940638e-01 3.245537388451155136e-01 0.000000000000000000e+00
Cu 9.184712102797204514e-01 4.248744628878944329e-01 0.000000000000000000e+00
Cu 9.185117077561885113e-01 5.252902722772502253e-01 0.000000000000000000e+00
Cu 9.188663340464111595e-01 6.258302376439902615e-01 0.000000000000000000e+00
Cu 9.189440122201723016e-01 7.265348746465617458e-01 0.000000000000000000e+00
Cu 9.279501763292580252e-01 8.241263632017684637e-01 0.000000000000000000e+00
Cu 9.224205985857010237e-01 9.258006221659291768e-01 0.000000000000000000e+00
Cu 1.035271377238633272e+00 2.464432792386923518e-02 0.000000000000000000e+00
Cu 1.034816390171610534e+00 1.246118569685332467e-01 0.000000000000000000e+00
Cu 1.034467397574968972e+00 2.246267923108530851e-01 0.000000000000000000e+00
Cu 1.034248170392663368e+00 3.246761229160367579e-01 0.000000000000000000e+00
Cu 1.034184344830194613e+00 4.247477485896060667e-01 0.000000000000000000e+00
Cu 1.034356096495262500e+00 5.248017087632150801e-01 0.000000000000000000e+00
Cu 1.034809416650333214e+00 6.247037982778630427e-01 0.000000000000000000e+00
Cu 1.037019557224328148e+00 7.236188588310569214e-01 0.000000000000000000e+00
Cu 1.038917481895999639e+00 8.245233919290295699e-01 0.000000000000000000e+00
Cu 1.039440370234079980e+00 9.255496107484525448e-01 0.000000000000000000e+00
Cu 1.151260475672354788e+00 2.532426194284779705e-02 0.000000000000000000e+00
Cu 1.150800140122471671e+00 1.251180117624404453e-01 0.000000000000000000e+00
Cu 1.150467472647303646e+00 2.249314262218465310e-01 0.000000000000000000e+00
Cu 1.150286751383134742e+00 3.247315428331072340e-01 0.000000000000000000e+00
Cu 1.150306760994623367e+00 4.244820456149288046e-01 0.000000000000000000e+00
Cu 1.150604236212569687e+00 5.241211882328097316e-01 0.000000000000000000e+00
Cu 1.151497418632187131e+00 6.235021384646433074e-01 0.000000000000000000e+00
Cu 1.152648115111237992e+00 7.232089838584881969e-01 0.000000000000000000e+00
Cu 1.153718776621553976e+00 8.233856106267918307e-01 0.000000000000000000e+00
Cu 1.154987964445606252e+00 9.235953112547924393e-01 0.000000000000000000e+00
Cu 1.267577519629004890e+00 2.605025806493942511e-02 0.000000000000000000e+00
Cu 1.267124701695106381e+00 1.256620771539827819e-01 0.000000000000000000e+00
Cu 1.266836134169625927e+00 2.252544933133786287e-01 0.000000000000000000e+00
Cu 1.266728434202584186e+00 3.247779028641483157e-01 0.000000000000000000e+00
Cu 1.266837520670692552e+00 4.242014133545797261e-01 0.000000000000000000e+00
Cu 1.267245989156315922e+00 5.235140529183354152e-01 0.000000000000000000e+00
Cu 1.267905008810746637e+00 6.228796127949046690e-01 0.000000000000000000e+00
Cu 1.268686377836737877e+00 7.224523382542272776e-01 0.000000000000000000e+00
Cu 1.269616860216596921e+00 8.221978234041685818e-01 0.000000000000000000e+00
Cu 1.270730206286117436e+00 9.220267137169485538e-01 0.000000000000000000e+00
Cu 1.384216333199874915e+00 2.682672862412325068e-02 0.000000000000000000e+00
Cu 1.383799409844574724e+00 1.262625160852402229e-01 0.000000000000000000e+00
Cu 1.383596677057429503e+00 2.256318173198324228e-01 0.000000000000000000e+00
Cu 1.383590755373078407e+00 3.248797006801903420e-01 0.000000000000000000e+00
Cu 1.383777558999215396e+00 4.240051582801618868e-01 0.000000000000000000e+00
Cu 1.384133141579112714e+00 5.230908612997248186e-01 0.000000000000000000e+00
Cu 1.384612629751380775e+00 6.222595327505994200e-01 0.000000000000000000e+00
Cu 1.385214126261125500e+00 7.215822931477899882e-01 0.000000000000000000e+00
Cu 1.385977942714595956e+00 8.210626080184295628e-01 0.000000000000000000e+00
Cu 1.386919212622894859e+00 9.206637934409496182e-01 0.000000000000000000e+00
Cu 1.501142402954120048e+00 2.763746756422609183e-02 0.000000000000000000e+00
Cu 1.500813942476311835e+00 1.269180978162390006e-01 0.000000000000000000e+00
Cu 1.500758430820995359e+00 2.260776314326200243e-01 0.000000000000000000e+00
Cu 1.500898016850824801e+00 3.250644126991122929e-01 0.000000000000000000e+00
Cu 1.501151232725252527e+00 4.239117849854677211e-01 0.000000000000000000e+00
Cu 1.501449329431423951e+00 5.227227820482915899e-01 0.000000000000000000e+00
Cu 1.501774675585244356e+00 6.216179360680701427e-01 0.000000000000000000e+00
Cu 1.502173578703873913e+00 7.206835804372584420e-01 0.000000000000000000e+00
Cu 1.502722990183410934e+00 8.199482154079713592e-01 0.000000000000000000e+00
Cu 1.503496432020573703e+00 9.193663705899389749e-01 0.000000000000000000e+00
Cu 1.618291486112182431e+00 2.842889647795316527e-02 0.000000000000000000e+00
Cu 1.618142951563235954e+00 1.275868927141697307e-01 0.000000000000000000e+00
Cu 1.618332366549124490e+00 2.265538063481146447e-01 0.000000000000000000e+00
Cu 1.618694201424812018e+00 3.252930563432446243e-01 0.000000000000000000e+00
Cu 1.619061940810384348e+00 4.238658355549952961e-01 0.000000000000000000e+00
Cu 1.619319343580017279e+00 5.223911432498327123e-01 0.000000000000000000e+00
Cu 1.619457399174557111e+00 6.210019693062180934e-01 0.000000000000000000e+00
Cu 1.619575274180279134e+00 7.198104357026113842e-01 0.000000000000000000e+00
Cu 1.619826525117041616e+00 8.188709899559353245e-01 0.000000000000000000e+00
Cu 1.620369691241619670e+00 9.181429956274632653e-01 0.000000000000000000e+00
Cu 1.735568014566330364e+00 2.908935816907208191e-02 0.000000000000000000e+00
Cu 1.735757512346469911e+00 1.281628254930445021e-01 0.000000000000000000e+00
Cu 1.736346578495242321e+00 2.269419517438125700e-01 0.000000000000000000e+00
Cu 1.737044003823455141e+00 3.254458193328075288e-01 0.000000000000000000e+00
Cu 1.737585419373707252e+00 4.238015046768613403e-01 0.000000000000000000e+00
Cu 1.737814133070981093e+00 5.221283093792847829e-01 0.000000000000000000e+00
Cu 1.737722951348476208e+00 6.205130912717753411e-01 0.000000000000000000e+00
Cu 1.737454782133639020e+00 7.190721266346525864e-01 0.000000000000000000e+00
Cu 1.737262573429785073e+00 8.179272590157169454e-01 0.000000000000000000e+00
Cu 1.737429785044263042e+00 9.170916288599414434e-01 0.000000000000000000e+00
Cu 1.852831667866652543e+00 2.941741872845680603e-02 0.000000000000000000e+00
Cu 1.853646150454230757e+00 1.284428054291359422e-01 0.000000000000000000e+00
Cu 1.854872469899678578e+00 2.270091769950696170e-01 0.000000000000000000e+00
Cu 1.856002856065066098e+00 3.253205938708024214e-01 0.000000000000000000e+00
Cu 1.856710994879509080e+00 4.236345129461917547e-01 0.000000000000000000e+00
Cu 1.856920025123214746e+00 5.219977828713928680e-01 0.000000000000000000e+00
Cu 1.856622939266926897e+00 6.203337244330229261e-01 0.000000000000000000e+00
Cu 1.855883703194260104e+00 7.186872033109780178e-01 0.000000000000000000e+00
Cu 1.855019093589231893e+00 8.173118520227421469e-01 0.000000000000000000e+00
Cu 1.854530577783715772e+00 9.164066262143867325e-01 0.000000000000000000e+00
Cu 1.969843694927187805e+00 2.903520594829480175e-02 0.000000000000000000e+00
Cu 1.971874861416405667e+00 1.280371359764465033e-01 0.000000000000000000e+00
Cu 1.974055783231889016e+00 2.263496085537578251e-01 0.000000000000000000e+00
Cu 1.975545338395382489e+00 3.246899868903695974e-01 0.000000000000000000e+00
Cu 1.976294906550020825e+00 4.233113375301140180e-01 0.000000000000000000e+00
Cu 1.976491566233432140e+00 5.220355310944279070e-01 0.000000000000000000e+00
Cu 1.976128311055063813e+00 6.206745187920292839e-01 0.000000000000000000e+00
Cu 1.975004747369197178e+00 7.190481493566214244e-01 0.000000000000000000e+00
Cu 1.973159320115186022e+00 8.174054989999953724e-01 0.000000000000000000e+00
Cu 1.971429473118988529e+00 9.164592523536895241e-01 0.000000000000000000e+00
Cu 2.086105694301451319e+00 2.705982043657665509e-02 0.000000000000000000e+00
Cu 2.090787056906935337e+00 1.260323886065208288e-01 0.000000000000000000e+00
Cu 2.093942688176209099e+00 2.244824707033313826e-01 0.000000000000000000e+00
Cu 2.095410839824687343e+00 3.235663332319253516e-01 0.000000000000000000e+00
Cu 2.096132052485145891e+00 4.228563292310880684e-01 0.000000000000000000e+00
Cu 2.096321603211838802e+00 5.222004130983503023e-01 0.000000000000000000e+00
Cu 2.095973146925798503e+00 6.215079195460009309e-01 0.000000000000000000e+00
Cu 2.094858430318624176e+00 7.206232775130940738e-01 0.000000000000000000e+00
Cu 2.092024080279568210e+00 8.191140597269305212e-01 0.000000000000000000e+00
Cu 2.087625686289638960e+00 9.181282268197704655e-01 0.000000000000000000e+00
Cu 2.200340865583376715e+00 1.952238326618230616e-02 0.000000000000000000e+00
Cu 2.210699622312602308e+00 1.209709594594316900e-01 0.000000000000000000e+00
Cu 2.213800978657597174e+00 2.219041941297572318e-01 0.000000000000000000e+00
Cu 2.215372751167939747e+00 3.222836050411473363e-01 0.000000000000000000e+00
Cu 2.216099932146597506e+00 4.223678765810767177e-01 0.000000000000000000e+00
Cu 2.216285128863528353e+00 5.223775894565860778e-01 0.000000000000000000e+00
Cu 2.215923155552342649e+00 6.224841529801488083e-01 0.000000000000000000e+00
Cu 2.214701184924561694e+00 7.229041104057091216e-01 0.000000000000000000e+00
Cu 2.211923210640379445e+00 8.238870397319693062e-01 0.000000000000000000e+00
Cu 2.201850477610672208e+00 9.253896286274961858e-01 0.000000000000000000e+00
