200

Cu 0.000000000000000000e+00 1.095646352507007558e-02 0.000000000000000000e+00
Cu 0.000000000000000000e+00 1.140351997844496895e-01 0.000000000000000000e+00
Cu 0.000000000000000000e+00 2.168067492294349918e-01 0.000000000000000000e+00
Cu 0.000000000000000000e+00 3.194513959155433902e-01 0.000000000000000000e+00
Cu 0.000000000000000000e+00 4.220629775688503060e-01 0.000000000000000000e+00
Cu 0.000000000000000000e+00 5.246826100707540075e-01 0.000000000000000000e+00
Cu 0.000000000000000000e+00 6.273403201765168635e-01 0.000000000000000000e+00
Cu 0.000000000000000000e+00 7.300723162559811241e-01 0.000000000000000000e+00
Cu 0.000000000000000000e+00 8.329612435663109604e-01 0.000000000000000000e+00
Cu 0.000000000000000000e+00 9.361690960256482397e-01 0.000000000000000000e+00
Cu 1.118558987590265869e-01 1.240509032965786754e-02 0.000000000000000000e+00
Cu 1.113580467479372699e-01 1.145336288245034639e-01 0.000000000000000000e+00
Cu 1.112912881838880319e-01 2.170197668658841450e-01 0.000000000000000000e+00
Cu 1.112482402403331821e-01 3.195569963873317598e-01 0.000000000000000000e+00
Cu 1.112035673678845316e-01 4.221024102533031397e-01 0.000000000000000000e+00
Cu 1.111545448348233156e-01 5.246671201135759688e-01 0.000000000000000000e+00
Cu 1.111032978732668791e-01 6.272627345040751035e-01 0.000000000000000000e+00
Cu 1.110564202033042652e-01 7.298944229808461692e-01 0.000000000000000000e+00
Cu 1.110407890968318906e-01 8.325154756677419776e-01 0.000000000000000000e+00
Cu 1.114416091812658605e-01 9.348320627251011095e-01 0.000000000000000000e+00
Cu 2.235320217688813726e-01 1.312975505794848965e-02 0.000000000000000000e+00
Cu 2.230517409474737089e-01 1.152301241469396442e-01 0.000000000000000000e+00
Cu 2.227638626180186987e-01 2.174418293384758893e-01 0.000000000000000000e+00
Cu 2.226234149991799804e-01 3.198008796397444065e-01 0.000000000000000000e+00
Cu 2.225112352711322017e-01 4.222195368150364891e-01 0.000000000000000000e+00
Cu 2.224084397481645992e-01 5.246725741999135328e-01 0.000000000000000000e+00
Cu 2.223237772925057421e-01 6.271478152773093395e-01 0.000000000000000000e+00
Cu 2.222834755061978140e-01 7.296075570902726959e-01 0.000000000000000000e+00
Cu 2.223967026260735558e-01 8.319637870907933275e-01 0.000000000000000000e+00
Cu 2.227034058440036102e-01 9.342556559351078427e-01 0.000000000000000000e+00
Cu 3.351960647624182554e-01 1.374086419390358957e-02 0.000000000000000000e+00
Cu 3.347487552901970420e-01 1.158136428621793224e-01 0.000000000000000000e+00
Cu 3.344091333490015194e-01 2.179471215069841150e-01 0.000000000000000000e+00
Cu 3.341740580260224025e-01 3.201553508309697427e-01 0.000000000000000000e+00
Cu 3.339908385841764416e-01 4.224171896661396697e-01 0.000000000000000000e+00
Cu 3.338250464245769433e-01 5.247087866793203048e-01 0.000000000000000000e+00
Cu 3.337063504383107615e-01 6.270246872650832026e-01 0.000000000000000000e+00
Cu 3.336791959594031520e-01 7.293291959503521715e-01 0.000000000000000000e+00
Cu 3.337578016761632571e-01 8.316014522189996150e-01 0.000000000000000000e+00
Cu 3.339382744717749874e-01 9.338694739445683179e-01 0.000000000000000000e+00
Cu 4.469182368513626158e-01 1.431422584620256795e-02 0.000000000000000000e+00
Cu 4.464886199746127549e-01 1.163495108572359105e-01 0.000000000000000000e+00
Cu 4.461477653746354077e-01 2.184343588971373873e-01 0.000000000000000000e+00
Cu 4.458911549147284159e-01 3.205624974649483039e-01 0.000000000000000000e+00
Cu 4.456869872822789569e-01 4.227047094667215066e-01 0.000000000000000000e+00
Cu 4.454645039689593689e-01 5.248092213884175683e-01 0.000000000000000000e+00
Cu 4.452581868770778550e-01 6.269327713973678051e-01 0.000000000000000000e+00
Cu 4.451669588686011370e-01 7.291345910366888727e-01 0.000000000000000000e+00
Cu 4.451628963247644122e-01 8.313796014323502348e-01 0.000000000000000000e+00
Cu 4.451976524294258830e-01 9.336301273361530262e-01 0.000000000000000000e+00
Cu 5.587404721193426349e-01 1.487918193554634352e-02 0.000000000000000000e+00
Cu 5.583175619607080309e-01 1.168569158699059446e-01 0.000000000000000000e+00
Cu 5.579841000850850330e-01 2.188888179740659523e-01 0.000000000000000000e+00
Cu 5.577412293294667922e-01 3.209638416567503483e-01 0.000000000000000000e+00
Cu 5.575687197527765537e-01 4.230502236588096210e-01 0.000000000000000000e+00
Cu 5.574109413189418660e-01 5.250771246587248031e-01 0.000000000000000000e+00
Cu 5.570444359937239964e-01 6.269131983140022735e-01 0.000000000000000000e+00
Cu 5.566987901191102761e-01 7.289591352319340078e-01 0.000000000000000000e+00
Cu 5.566011960903896050e-01 8.312946971957411169e-01 0.000000000000000000e+00
Cu 5.565134703657194093e-01 9.336195668001845416e-01 0.000000000000000000e+00
Cu 6.707048045787824542e-01 1.544738476098881687e-02 0.000000000000000000e+00
Cu 6.702780519915713109e-01 1.173451974698554029e-01 0.000000000000000000e+00
Cu 6.699449882097133768e-01 2.193045319409229199e-01 0.000000000000000000e+00
Cu 6.697139385302829373e-01 3.213192057427087800e-01 0.000000000000000000e+00
Cu 6.695869207480378282e-01 4.233750261011521854e-01 0.000000000000000000e+00
Cu 6.695204980853668442e-01 5.254305798121701176e-01 0.000000000000000000e+00
Cu 6.694512809558456068e-01 6.273672454825266476e-01 0.000000000000000000e+00
Cu 6.683554872444968931e-01 7.286036030701451560e-01 0.000000000000000000e+00
Cu 6.676291327911426654e-01 8.312490482454338858e-01 0.000000000000000000e+00
Cu 6.681294686337860833e-01 9.339186575734568230e-01 0.000000000000000000e+00
Cu 7.828547167638600923e-01 1.603015182942516687e-02 0.000000000000000000e+00
Cu 7.824136027658744608e-01 1.178243167653333229e-01 0.000000000000000000e+00
Cu 7.820694197668129899e-01 2.196842226295158684e-01 0.000000000000000000e+00
Cu 7.818361762825254413e-01 3.216077670950512335e-01 0.000000000000000000e+00
Cu 7.817215157913850465e-01 4.235962944369922045e-01 0.000000000000000000e+00
Cu 7.817387118609046004e-01 5.256594968756229669e-01 0.000000000000000000e+00
Cu 7.817731669328107369e-01 6.278114475101762570e-01 0.000000000000000000e+00
Cu 7.821148697108752934e-01 7.300560755368146193e-01 0.000000000000000000e+00
Cu 7.764568585055220407e-01 8.301532662800219509e-01 0.000000000000000000e+00
Cu 7.811673326472243772e-01 9.330091056493972079e-01 0.000000000000000000e+00
Cu 8.952330940943050708e-01 1.664083443733754830e-02 0.000000000000000000e+00
Cu 8.947687096655612127e-01 1.183080000303757540e-01 0.000000000000000000e+00
Cu 8.944062005021206074e-01 2.200385961340945995e-01 0.000000000000000000e+00
Cu 8.941607514489666730e-01 3.218278530896951928e-01 0.000000000000000000e+00
Cu 8.940491426338109671e-01 4.236772782864964837e-01 0.000000000000000000e+00
Cu 8.940707995624586069e-01 5.255983574610733067e-01 0.000000000000000000e+00
Cu 8.943373895050604760e-01 6.276079080773938612e-01 0.000000000000000000e+00
Cu 8.945348025816558524e-01 7.297082365085856281e-01 0.000000000000000000e+00
Cu 9.009379365605372225e-01 8.296007096400156433e-01 0.000000000000000000e+00
Cu 8.971187419993383871e-01 9.323462378748894608e-01 0.000000000000000000e+00
Cu 1.007878790188591056e+00 1.729362961974144353e-02 0.000000000000000000e+00
Cu 1.007386645601084929e+00 1.188125282644102720e-01 0.000000000000000000e+00
Cu 1.007007224641117471e+00 2.203833322882880752e-01 0.000000000000000000e+00
Cu 1.006758444822905663e+00 3.219907391275131925e-01 0.000000000000000000e+00
Cu 1.006660917732361105e+00 4.236210120762594622e-01 0.000000000000000000e+00
Cu 1.006770456198857300e+00 5.252409921900398349e-01 0.000000000000000000e+00
Cu 1.007143707334999583e+00 6.267424823839992110e-01 0.000000000000000000e+00
Cu 1.008786344851767325e+00 7.275464185967890351e-01 0.000000000000000000e+00
Cu 1.010267638070695639e+00 8.297743461482545158e-01 0.000000000000000000e+00
Cu 1.010714878330416955e+00 9.320406155346598887e-01 0.000000000000000000e+00
Cu 1.120822536513547574e+00 1.800153751242200909e-02 0.000000000000000000e+00
Cu 1.120305289091403811e+00 1.193553742899581271e-01 0.000000000000000000e+00
Cu 1.119922381210489259e+00 2.207385994821570718e-01 0.000000000000000000e+00
Cu 1.119691700575075499e+00 3.221208207308693949e-01 0.000000000000000000e+00
Cu 1.119649200344732254e+00 4.234712559380835462e-01 0.000000000000000000e+00
Cu 1.119856115553367060e+00 5.247405791810620945e-01 0.000000000000000000e+00
Cu 1.120531977450899941e+00 6.258275193250357749e-01 0.000000000000000000e+00
Cu 1.121432203796999927e+00 7.271546421933778870e-01 0.000000000000000000e+00
Cu 1.122309492622733496e+00 8.288079664625574994e-01 0.000000000000000000e+00
Cu 1.123376143110616177e+00 9.304623829085577613e-01 0.000000000000000000e+00
Cu 1.234081636850939301e+00 1.877367754740311145e-02 0.000000000000000000e+00
Cu 1.233552439942720680e+00 1.199535384364678187e-01 0.000000000000000000e+00
Cu 1.233191133711589504e+00 2.211298278485839541e-01 0.000000000000000000e+00
Cu 1.233007911615958907e+00 3.222593543318625908e-01 0.000000000000000000e+00
Cu 1.233029097728283396e+00 4.233161722046358544e-01 0.000000000000000000e+00
Cu 1.233312023232594035e+00 5.242941979864746971e-01 0.000000000000000000e+00
Cu 1.233818176748813666e+00 6.253155096138264257e-01 0.000000000000000000e+00
Cu 1.234454810136059733e+00 7.264872720206433376e-01 0.000000000000000000e+00
Cu 1.235247393355588086e+00 8.277775844495552926e-01 0.000000000000000000e+00
Cu 1.236231438190369403e+00 9.291116179013318988e-01 0.000000000000000000e+00
Cu 1.347654323336305193e+00 1.961017313557414377e-02 0.000000000000000000e+00
Cu 1.347141017533785901e+00 1.206183844470395256e-01 0.000000000000000000e+00
Cu 1.346839865281189486e+00 2.215817560302305311e-01 0.000000000000000000e+00
Cu 1.346732524424283595e+00 3.224525391311707789e-01 0.000000000000000000e+00
Cu 1.346810860470199822e+00 4.232291718199350794e-01 0.000000000000000000e+00
Cu 1.347053258048619195e+00 5.239763962566507116e-01 0.000000000000000000e+00
Cu 1.347426466840197179e+00 6.247878005805003188e-01 0.000000000000000000e+00
Cu 1.347933486014197157e+00 7.257160061382387228e-01 0.000000000000000000e+00
Cu 1.348612095045549797e+00 8.267597519728305810e-01 0.000000000000000000e+00
Cu 1.349481984140983082e+00 9.278861216661369316e-01 0.000000000000000000e+00
Cu 1.461515523388843718e+00 2.049282042542560286e-02 0.000000000000000000e+00
Cu 1.461067889025604583e+00 1.213438858791752034e-01 0.000000000000000000e+00
Cu 1.460884195155115028e+00 2.221007606622987518e-01 0.000000000000000000e+00
Cu 1.460895230267639011e+00 3.227179788158436313e-01 0.000000000000000000e+00
Cu 1.461029671083155401e+00 4.232209855028709611e-01 0.000000000000000000e+00
Cu 1.461229667454508885e+00 5.236928585272299097e-01 0.000000000000000000e+00
Cu 1.461482915386599579e+00 6.242315028757391415e-01 0.000000000000000000e+00
Cu 1.461832065857636698e+00 7.249065052463086190e-01 0.000000000000000000e+00
Cu 1.462346134513225593e+00 8.257388983905017410e-01 0.000000000000000000e+00
Cu 1.463091915654562092e+00 9.266884810407381989e-01 0.000000000000000000e+00
Cu 1.575615579850700998e+00 2.137155851741933538e-02 0.000000000000000000e+00
Cu 1.575317607511176332e+00 1.220894087246327808e-01 0.000000000000000000e+00
Cu 1.575340507230343245e+00 2.226494459349856736e-01 0.000000000000000000e+00
Cu 1.575541660371049701e+00 3.230189033838313795e-01 0.000000000000000000e+00
Cu 1.575777364491077748e+00 4.232472156080908654e-01 0.000000000000000000e+00
Cu 1.575948021168144697e+00 5.234334075601004832e-01 0.000000000000000000e+00
Cu 1.576047812155313865e+00 6.236891763007081924e-01 0.000000000000000000e+00
Cu 1.576165011997471721e+00 7.241083625083398756e-01 0.000000000000000000e+00
Cu 1.576434350405127915e+00 8.247353994711058567e-01 0.000000000000000000e+00
Cu 1.576993623664685318e+00 9.255348326166504824e-01 0.000000000000000000e+00
Cu 1.689879092638403524e+00 2.214747952259425029e-02 0.000000000000000000e+00
Cu 1.689872366248930780e+00 1.227601029658704906e-01 0.000000000000000000e+00
Cu 1.690239479246052889e+00 2.231223958761329729e-01 0.000000000000000000e+00
Cu 1.690731466975897046e+00 3.232509913868049090e-01 0.000000000000000000e+00
Cu 1.691120201602136275e+00 4.232529366335084919e-01 0.000000000000000000e+00
Cu 1.691270414481416351e+00 5.232286718734542319e-01 0.000000000000000000e+00
Cu 1.691177539579905353e+00 6.232513385770391823e-01 0.000000000000000000e+00
Cu 1.690967847664043733e+00 7.234192533926325774e-01 0.000000000000000000e+00
Cu 1.690861629215649975e+00 8.238356973609233247e-01 0.000000000000000000e+00
Cu 1.691102429766494053e+00 9.245129894520036640e-01 0.000000000000000000e+00
Cu 1.804194511729365402e+00 2.264603387165393597e-02 0.000000000000000000e+00
Cu 1.804731473629355376e+00 1.231783594513570640e-01 0.000000000000000000e+00
Cu 1.805648634027963162e+00 2.233168911366870402e-01 0.000000000000000000e+00
Cu 1.806513494458934943e+00 3.232399009024906622e-01 0.000000000000000000e+00
Cu 1.807047257780797445e+00 4.231666808673032465e-01 0.000000000000000000e+00
Cu 1.807183387939260477e+00 5.231349907194809967e-01 0.000000000000000000e+00
Cu 1.806917464664061113e+00 6.230774081173969803e-01 0.000000000000000000e+00
Cu 1.806307784878470324e+00 7.230302975215229244e-01 0.000000000000000000e+00
Cu 1.805626787398092459e+00 8.232101527841765298e-01 0.000000000000000000e+00
Cu 1.805302555013335475e+00 9.237913414206014862e-01 0.000000000000000000e+00
Cu 1.918372493314404625e+00 2.254174501856507501e-02 0.000000000000000000e+00
Cu 1.919965014126564951e+00 1.230067589019304825e-01 0.000000000000000000e+00
Cu 1.921696114038367265e+00 2.228853081384200852e-01 0.000000000000000000e+00
Cu 1.922862415346556775e+00 3.227940933316430505e-01 0.000000000000000000e+00
Cu 1.923430132270446791e+00 4.229443237080613427e-01 0.000000000000000000e+00
Cu 1.923557236844391172e+00 5.231836196630634817e-01 0.000000000000000000e+00
Cu 1.923239379068558241e+00 6.233462741643155391e-01 0.000000000000000000e+00
Cu 1.922310298049084709e+00 7.232784421470898062e-01 0.000000000000000000e+00
Cu 1.920797355133022410e+00 8.231884634344248663e-01 0.000000000000000000e+00
Cu 1.919401344622415406e+00 9.236893736033249258e-01 0.000000000000000000e+00
Cu 2.032029810481868815e+00 2.108216694721294637e-02 0.000000000000000000e+00
Cu 2.035877808738910666e+00 1.214650194672946826e-01 0.000000000000000000e+00
Cu 2.038408054917106860e+00 2.214314890774283229e-01 0.000000000000000000e+00
Cu 2.039551280158714341e+00 3.219295160151057211e-01 0.000000000000000000e+00
Cu 2.040086449609811670e+00 4.226101775279378359e-01 0.000000000000000000e+00
Cu 2.040208190563289392e+00 5.233381123278378899e-01 0.000000000000000000e+00
Cu 2.039912617830283104e+00 6.240306899161582876e-01 0.000000000000000000e+00
Cu 2.038997215533518759e+00 7.245502131414828240e-01 0.000000000000000000e+00
Cu 2.036675338712735872e+00 8.245442237552373932e-01 0.000000000000000000e+00
Cu 2.033012602126420543e+00 9.249549695521647186e-01 0.000000000000000000e+00
Cu 2.144255941761377571e+00 1.494576999311438871e-02 0.000000000000000000e+00
Cu 2.152664399531068362e+00 1.173717427296422228e-01 0.000000000000000000e+00
Cu 2.155162137796485577e+00 2.193732604132442865e-01 0.000000000000000000e+00
Cu 2.156372331689529798e+00 3.209310170579167121e-01 0.000000000000000000e+00
Cu 2.156909983750047832e+00 4.222483149689053028e-01 0.000000000000000000e+00
Cu 2.157028363104633861e+00 5.235027835008041475e-01 0.000000000000000000e+00
Cu 2.156724355206417254e+00 6.248346520258549752e-01 0.000000000000000000e+00
Cu 2.155738567373003178e+00 7.264187995477970894e-01 0.000000000000000000e+00
Cu 2.153449587658544218e+00 8.284525600375430843e-01 0.000000000000000000e+00
Cu 2.145228234576798787e+00 9.309119803036826069e-01 0.000000000000000000e+00
