200

Cu 0.000000000000000000e+00 4.969091612549305509e-02 0.000000000000000000e+00
Cu 0.000000000000000000e+00 1.453820216268831844e-01 0.000000000000000000e+00
Cu 0.000000000000000000e+00 2.396575279257406876e-01 0.000000000000000000e+00
Cu 0.000000000000000000e+00 3.332940539655778744e-01 0.000000000000000000e+00
Cu 0.000000000000000000e+00 4.267085143096758793e-01 0.000000000000000000e+00
Cu 0.000000000000000000e+00 5.201149742899257022e-01 0.000000000000000000e+00
Cu 0.000000000000000000e+00 6.136873269153175769e-01 0.000000000000000000e+00
Cu 0.000000000000000000e+00 7.076179740584994660e-01 0.000000000000000000e+00
Cu 0.000000000000000000e+00 8.022796626273061005e-01 0.000000000000000000e+00
Cu 0.000000000000000000e+00 8.983773962368206689e-01 0.000000000000000000e+00
Cu 1.322990305827073110e-01 5.490904933570646407e-02 0.000000000000000000e+00
Cu 1.309488335903792045e-01 1.471862515396472892e-01 0.000000000000000000e+00
Cu 1.309070811969157144e-01 2.404130062353128094e-01 0.000000000000000000e+00
Cu 1.308487942955636474e-01 3.336570046215949770e-01 0.000000000000000000e+00
Cu 1.307463744571647213e-01 4.268346046305528940e-01 0.000000000000000000e+00
Cu 1.305851682957365201e-01 5.200443121409851210e-01 0.000000000000000000e+00
Cu 1.303782882284434674e-01 6.133894323686661654e-01 0.000000000000000000e+00
Cu 1.301610540028694529e-01 7.069478360639629422e-01 0.000000000000000000e+00
Cu 1.299744072640460768e-01 8.006100004278809967e-01 0.000000000000000000e+00
Cu 1.311091880485933947e-01 8.934384407060975697e-01 0.000000000000000000e+00
Cu 2.639754888898571683e-01 5.735977638349638863e-02 0.000000000000000000e+00
Cu 2.628612899838654315e-01 1.493953604328531193e-01 0.000000000000000000e+00
Cu 2.622578984135058855e-01 2.417296918857530230e-01 0.000000000000000000e+00
Cu 2.620129192735572432e-01 3.344079065472506107e-01 0.000000000000000000e+00
Cu 2.617489254048431802e-01 4.271855578663755204e-01 0.000000000000000000e+00
Cu 2.614170560048585945e-01 5.200332862508694198e-01 0.000000000000000000e+00
Cu 2.610501873269301942e-01 6.129768675207180051e-01 0.000000000000000000e+00
Cu 2.607388647820768623e-01 7.059683038359008123e-01 0.000000000000000000e+00
Cu 2.608583013160632458e-01 7.987608453883346948e-01 0.000000000000000000e+00
Cu 2.615642877100788355e-01 8.913869168608471449e-01 0.000000000000000000e+00
Cu 3.955522103767469821e-01 5.906368771035164222e-02 0.000000000000000000e+00
Cu 3.946580591778633407e-01 1.510575330261786087e-01 0.000000000000000000e+00
Cu 3.939966088184099768e-01 2.431511719483970269e-01 0.000000000000000000e+00
Cu 3.935509823476520674e-01 3.354057571715852171e-01 0.000000000000000000e+00
Cu 3.931364076056657053e-01 4.277536511082052906e-01 0.000000000000000000e+00
Cu 3.926213020559377043e-01 5.201376923557552434e-01 0.000000000000000000e+00
Cu 3.920798596068986730e-01 6.125994499469447074e-01 0.000000000000000000e+00
Cu 3.916865037529142501e-01 7.051130720422631448e-01 0.000000000000000000e+00
Cu 3.915823063706828644e-01 7.976560346464204310e-01 0.000000000000000000e+00
Cu 3.918186499557437252e-01 8.902872774987374838e-01 0.000000000000000000e+00
Cu 5.271294024021102587e-01 6.040425270117701778e-02 0.000000000000000000e+00
Cu 5.264114891042103173e-01 1.523774455673195527e-01 0.000000000000000000e+00
Cu 5.258362250200091514e-01 2.443970555450062365e-01 0.000000000000000000e+00
Cu 5.253825172728406878e-01 3.364740714297184132e-01 0.000000000000000000e+00
Cu 5.249623662981506289e-01 4.285551444718832537e-01 0.000000000000000000e+00
Cu 5.243019485792488332e-01 5.204771270563103291e-01 0.000000000000000000e+00
Cu 5.234546445321596186e-01 6.124038832220973783e-01 0.000000000000000000e+00
Cu 5.227273524650799530e-01 7.046165363882869181e-01 0.000000000000000000e+00
Cu 5.221881556301951610e-01 7.971192457385766206e-01 0.000000000000000000e+00
Cu 5.218719476327426943e-01 8.898461431295645596e-01 0.000000000000000000e+00
Cu 6.587501686212164920e-01 6.149192112693344092e-02 0.000000000000000000e+00
Cu 6.581853733936513517e-01 1.534378022282517628e-01 0.000000000000000000e+00
Cu 6.577293606019457561e-01 2.454281547737245661e-01 0.000000000000000000e+00
Cu 6.573822629957447594e-01 3.374651056703408813e-01 0.000000000000000000e+00
Cu 6.570517315526960278e-01 4.294865415410564768e-01 0.000000000000000000e+00
Cu 6.566704498652168320e-01 5.213494839776926515e-01 0.000000000000000000e+00
Cu 6.552921797868476173e-01 6.125496747946354015e-01 0.000000000000000000e+00
Cu 6.537184845092128826e-01 7.043111313264074358e-01 0.000000000000000000e+00
Cu 6.526114934931773748e-01 7.971528815040860305e-01 0.000000000000000000e+00
Cu 6.516230079179928802e-01 8.902388274580904648e-01 0.000000000000000000e+00
Cu 7.904557434359151813e-01 6.236174021601798706e-02 0.000000000000000000e+00
Cu 7.900250787022394805e-01 1.542602997479050886e-01 0.000000000000000000e+00
Cu 7.896877639509202185e-01 2.462186088837950981e-01 0.000000000000000000e+00
Cu 7.894452838698774455e-01 3.382525442879539823e-01 0.000000000000000000e+00
Cu 7.893181511852175314e-01 4.303590496482396777e-01 0.000000000000000000e+00
Cu 7.890509119978703634e-01 5.224370705396284009e-01 0.000000000000000000e+00
Cu 7.890009598256436663e-01 6.142975349498088766e-01 0.000000000000000000e+00
Cu 7.845111816054187726e-01 7.036210396509680054e-01 0.000000000000000000e+00
Cu 7.818014470246978931e-01 7.974691852331471376e-01 0.000000000000000000e+00
Cu 7.813688914615899428e-01 8.921325794370061901e-01 0.000000000000000000e+00
Cu 9.222940630593653433e-01 6.303145730611491027e-02 0.000000000000000000e+00
Cu 9.219815445294110567e-01 1.548540179975054498e-01 0.000000000000000000e+00
Cu 9.217381722421039703e-01 2.467460140650800660e-01 0.000000000000000000e+00
Cu 9.215980788221982412e-01 3.387401541306152564e-01 0.000000000000000000e+00
Cu 9.215324259351398428e-01 4.308767984910552018e-01 0.000000000000000000e+00
Cu 9.217140274301232061e-01 5.232307331306828013e-01 0.000000000000000000e+00
Cu 9.212102970496174326e-01 6.158673345575149671e-01 0.000000000000000000e+00
Cu 9.235296268673657272e-01 7.092213500332212872e-01 0.000000000000000000e+00
Cu 9.007681957659027239e-01 7.945892628339588093e-01 0.000000000000000000e+00
Cu 9.162846894646201612e-01 8.904443920601765594e-01 0.000000000000000000e+00
Cu 1.054319675349654872e+00 6.352247275417050032e-02 0.000000000000000000e+00
Cu 1.054107799465708650e+00 1.552364584114617752e-01 0.000000000000000000e+00
Cu 1.053950127198974629e+00 2.470122092470557196e-01 0.000000000000000000e+00
Cu 1.053870424104597747e+00 3.388767867178886783e-01 0.000000000000000000e+00
Cu 1.053942078091732792e+00 4.308711155052094011e-01 0.000000000000000000e+00
Cu 1.054011524811135914e+00 5.230754434401976294e-01 0.000000000000000000e+00
Cu 1.055006447560605576e+00 6.155604577240506581e-01 0.000000000000000000e+00
Cu 1.053356928133534876e+00 7.087940706363945464e-01 0.000000000000000000e+00
Cu 1.076862616874750378e+00 7.938160759167038893e-01 0.000000000000000000e+00
Cu 1.062262414924309173e+00 8.896892238725644386e-01 0.000000000000000000e+00
Cu 1.186583022719727154e+00 6.386582941025974181e-02 0.000000000000000000e+00
Cu 1.186461053823670619e+00 1.554416948651808628e-01 0.000000000000000000e+00
Cu 1.186385151334352184e+00 2.470497986467647400e-01 0.000000000000000000e+00
Cu 1.186407626278957350e+00 3.386864647447238585e-01 0.000000000000000000e+00
Cu 1.186545339819563560e+00 4.303491950107974917e-01 0.000000000000000000e+00
Cu 1.187073063910733417e+00 5.219582897059713567e-01 0.000000000000000000e+00
Cu 1.187605828343859971e+00 6.133594348540689634e-01 0.000000000000000000e+00
Cu 1.192772946108283882e+00 7.022205429824973644e-01 0.000000000000000000e+00
Cu 1.196306326702299749e+00 7.956329187387426449e-01 0.000000000000000000e+00
Cu 1.197702210825168478e+00 8.898977350763349614e-01 0.000000000000000000e+00
Cu 1.319121600513248005e+00 6.410216524046098707e-02 0.000000000000000000e+00
Cu 1.319081991881446259e+00 1.555212034205477045e-01 0.000000000000000000e+00
Cu 1.319112022138732687e+00 2.469239892583288132e-01 0.000000000000000000e+00
Cu 1.319253551874180808e+00 3.382694764358449291e-01 0.000000000000000000e+00
Cu 1.319619241656292186e+00 4.294960279471772280e-01 0.000000000000000000e+00
Cu 1.320269161768121480e+00 5.205125762688873614e-01 0.000000000000000000e+00
Cu 1.322142443688193225e+00 6.108838545918837681e-01 0.000000000000000000e+00
Cu 1.324418077432492513e+00 7.018816970203972661e-01 0.000000000000000000e+00
Cu 1.326414727156661755e+00 7.940383941052224781e-01 0.000000000000000000e+00
Cu 1.328392951571636615e+00 8.864819447380342110e-01 0.000000000000000000e+00
Cu 1.451945414796959266e+00 6.427671469435788931e-02 0.000000000000000000e+00
Cu 1.451992111216309667e+00 1.555380937291611920e-01 0.000000000000000000e+00
Cu 1.452153025523950536e+00 2.467265373353504654e-01 0.000000000000000000e+00
Cu 1.452469362357908578e+00 3.377697060196013235e-01 0.000000000000000000e+00
Cu 1.452995134763204410e+00 4.286201883242873878e-01 0.000000000000000000e+00
Cu 1.453952034798024373e+00 5.192164617540163674e-01 0.000000000000000000e+00
Cu 1.455276511244731008e+00 6.098648123727830050e-01 0.000000000000000000e+00
Cu 1.456698786233375120e+00 7.009545279697949605e-01 0.000000000000000000e+00
Cu 1.458155017404676235e+00 7.925041069943191685e-01 0.000000000000000000e+00
Cu 1.459563340925031705e+00 8.843718001223854763e-01 0.000000000000000000e+00
Cu 1.585029289191306257e+00 6.442632637174017241e-02 0.000000000000000000e+00
Cu 1.585179544989005151e+00 1.555522240815974122e-01 0.000000000000000000e+00
Cu 1.585514331922705411e+00 2.465471391443865012e-01 0.000000000000000000e+00
Cu 1.586015188849769331e+00 3.373329670628472665e-01 0.000000000000000000e+00
Cu 1.586700113894374820e+00 4.278994135572337099e-01 0.000000000000000000e+00
Cu 1.587552023711595872e+00 5.183767171598134826e-01 0.000000000000000000e+00
Cu 1.588487093010864326e+00 6.089988736242309963e-01 0.000000000000000000e+00
Cu 1.589454031259720512e+00 6.999345548493285385e-01 0.000000000000000000e+00
Cu 1.590449637654792525e+00 7.912266681511777033e-01 0.000000000000000000e+00
Cu 1.591432549595818591e+00 8.828038067970950253e-01 0.000000000000000000e+00
Cu 1.718305569164793933e+00 6.455829852954789172e-02 0.000000000000000000e+00
Cu 1.718607043191130224e+00 1.555927119373552714e-01 0.000000000000000000e+00
Cu 1.719175003508651489e+00 2.464382366243957068e-01 0.000000000000000000e+00
Cu 1.719902081260020310e+00 3.370211760067831630e-01 0.000000000000000000e+00
Cu 1.720678189142243575e+00 4.273931306348110470e-01 0.000000000000000000e+00
Cu 1.721401532018274505e+00 5.177159807815312487e-01 0.000000000000000000e+00
Cu 1.722024677597536302e+00 6.081871803820766420e-01 0.000000000000000000e+00
Cu 1.722579300781783118e+00 6.989569407928306610e-01 0.000000000000000000e+00
Cu 1.723142297848720084e+00 7.900793722122557705e-01 0.000000000000000000e+00
Cu 1.723790871370400435e+00 8.814775397799026191e-01 0.000000000000000000e+00
Cu 1.851663666044204293e+00 6.462205590552656809e-02 0.000000000000000000e+00
Cu 1.852214671576484228e+00 1.556272009698558001e-01 0.000000000000000000e+00
Cu 1.853127253744837999e+00 2.463709017528709078e-01 0.000000000000000000e+00
Cu 1.854156723502352833e+00 3.367999986509307986e-01 0.000000000000000000e+00
Cu 1.855066294015359274e+00 4.270070276613454618e-01 0.000000000000000000e+00
Cu 1.855687598018992412e+00 5.171651809989230575e-01 0.000000000000000000e+00
Cu 1.855988177148099494e+00 6.074652225426296903e-01 0.000000000000000000e+00
Cu 1.856078439238798117e+00 6.980693808383984234e-01 0.000000000000000000e+00
Cu 1.856153806318472821e+00 7.890566199703872297e-01 0.000000000000000000e+00
Cu 1.856432527628816942e+00 8.803573463676145350e-01 0.000000000000000000e+00
Cu 1.984942601248102401e+00 6.447766481029164332e-02 0.000000000000000000e+00
Cu 1.985933516149859912e+00 1.555293639911544679e-01 0.000000000000000000e+00
Cu 1.987385648289198725e+00 2.462053034933309459e-01 0.000000000000000000e+00
Cu 1.988858589801433929e+00 3.365163476855723701e-01 0.000000000000000000e+00
Cu 1.989977527745204533e+00 4.266400915622579060e-01 0.000000000000000000e+00
Cu 1.990522554362022412e+00 5.167428974630513538e-01 0.000000000000000000e+00
Cu 1.990466967285267952e+00 6.069427223882148947e-01 0.000000000000000000e+00
Cu 1.989981994159319090e+00 6.973977238387669697e-01 0.000000000000000000e+00
Cu 1.989405341517069825e+00 7.882716300419921884e-01 0.000000000000000000e+00
Cu 1.989151980506237205e+00 8.795580284492373613e-01 0.000000000000000000e+00
Cu 2.117900278381136037e+00 6.384879508874941045e-02 0.000000000000000000e+00
Cu 2.119701287472286477e+00 1.550366922163954053e-01 0.000000000000000000e+00
Cu 2.122025982477711903e+00 2.456408764594397443e-01 0.000000000000000000e+00
Cu 2.124097501117903519e+00 3.358991305128722349e-01 0.000000000000000000e+00
Cu 2.125432050059782085e+00 4.261681355766576140e-01 0.000000000000000000e+00
Cu 2.125923882793062880e+00 5.165213746213818125e-01 0.000000000000000000e+00
Cu 2.125548344976091908e+00 6.068492442732382752e-01 0.000000000000000000e+00
Cu 2.124365756116453952e+00 6.972188385376056896e-01 0.000000000000000000e+00
Cu 2.122826714538516235e+00 7.879754680558431756e-01 0.000000000000000000e+00
Cu 2.121686480528809593e+00 8.793433366066025769e-01 0.000000000000000000e+00
Cu 2.250100689622750672e+00 6.220130537610393806e-02 0.000000000000000000e+00
Cu 2.253526502652235752e+00 1.536309622878659353e-01 0.000000000000000000e+00
Cu 2.257253998242057857e+00 2.441125468099573370e-01 0.000000000000000000e+00
Cu 2.259895668754466680e+00 3.346021211470118772e-01 0.000000000000000000e+00
Cu 2.261289309115197987e+00 4.255039733333884078e-01 0.000000000000000000e+00
Cu 2.261748163702355097e+00 5.165458957371500404e-01 0.000000000000000000e+00
Cu 2.261247864487279546e+00 6.074952826852998422e-01 0.000000000000000000e+00
Cu 2.259429804651580387e+00 6.980742041257403940e-01 0.000000000000000000e+00
Cu 2.256419662128504644e+00 7.886738864763149781e-01 0.000000000000000000e+00
Cu 2.253589325736959470e+00 8.802382454967051517e-01 0.000000000000000000e+00
Cu 2.380505912824897319e+00 5.825043299762496657e-02 0.000000000000000000e+00
Cu 2.387811425863280324e+00 1.500325437529004269e-01 0.000000000000000000e+00
Cu 2.393318583681619760e+00 2.407976929154828916e-01 0.000000000000000000e+00
Cu 2.395919884749654116e+00 3.326044348708363518e-01 0.000000000000000000e+00
Cu 2.397343236266968436e+00 4.246512079183027977e-01 0.000000000000000000e+00
Cu 2.397784183042197981e+00 5.167711111405369762e-01 0.000000000000000000e+00
Cu 2.397220582696191649e+00 6.088674897484120940e-01 0.000000000000000000e+00
Cu 2.395410943621666178e+00 7.007610374162563938e-01 0.000000000000000000e+00
Cu 2.390584145216810619e+00 7.916386188981873184e-01 0.000000000000000000e+00
Cu 2.383820776040554090e+00 8.835278535706594383e-01 0.000000000000000000e+00
Cu 2.505559104878035015e+00 4.570074712469578138e-02 0.000000000000000000e+00
Cu 2.523981624069644436e+00 1.415032520317106024e-01 0.000000000000000000e+00
Cu 2.529052938360240255e+00 2.364792161164735451e-01 0.000000000000000000e+00
Cu 2.532020653397946575e+00 3.303788233536958385e-01 0.000000000000000000e+00
Cu 2.533448041608985513e+00 4.237518077542250516e-01 0.000000000000000000e+00
Cu 2.533879928915740098e+00 5.170109109312321927e-01 0.000000000000000000e+00
Cu 2.533296695541911170e+00 6.104500401261315767e-01 0.000000000000000000e+00
Cu 2.531116245899679651e+00 7.044701634186509853e-01 0.000000000000000000e+00
Cu 2.526732643989610505e+00 7.995878990413626264e-01 0.000000000000000000e+00
Cu 2.508857547786587538e+00 8.955502988138495102e-01 0.000000000000000000e+00
