200

Cu 0.000000000000000000e+00 1.041909955184374022e-02 0.000000000000000000e+00
Cu 0.000000000000000000e+00 1.153709131630614865e-01 0.000000000000000000e+00
Cu 0.000000000000000000e+00 2.203722089630570091e-01 0.000000000000000000e+00
Cu 0.000000000000000000e+00 3.254534555184691591e-01 0.000000000000000000e+00
Cu 0.000000000000000000e+00 4.306227302902162490e-01 0.000000000000000000e+00
Cu 0.000000000000000000e+00 5.358766103368599598e-01 0.000000000000000000e+00
Cu 0.000000000000000000e+00 6.412094538310559866e-01 0.000000000000000000e+00
Cu 0.000000000000000000e+00 7.466163712668271168e-01 0.000000000000000000e+00
Cu 0.000000000000000000e+00 8.520895897780614847e-01 0.000000000000000000e+00
Cu 0.000000000000000000e+00 9.576106069960744760e-01 0.000000000000000000e+00
Cu 1.064093341059879627e-01 1.076604405063194547e-02 0.000000000000000000e+00
Cu 1.061019464124249440e-01 1.155468501130546832e-01 0.000000000000000000e+00
Cu 1.058740028556503093e-01 2.205070787848965874e-01 0.000000000000000000e+00
Cu 1.056561984321573305e-01 3.255830464399431246e-01 0.000000000000000000e+00
Cu 1.054443831491434780e-01 4.307568372698726278e-01 0.000000000000000000e+00
Cu 1.052364946438149457e-01 5.360184798044530519e-01 0.000000000000000000e+00
Cu 1.050291123971805463e-01 6.413597238510063692e-01 0.000000000000000000e+00
Cu 1.048161653555787082e-01 7.467774046811201938e-01 0.000000000000000000e+00
Cu 1.045866706130427481e-01 8.522847887851644488e-01 0.000000000000000000e+00
Cu 1.042688892386016697e-01 9.579503647944055400e-01 0.000000000000000000e+00
Cu 2.127778943712729798e-01 1.121619429159101573e-02 0.000000000000000000e+00
Cu 2.122456423076506393e-01 1.160071510075069978e-01 0.000000000000000000e+00
Cu 2.117544550835597228e-01 2.209357224694984134e-01 0.000000000000000000e+00
Cu 2.113035308033240356e-01 3.260045644496087913e-01 0.000000000000000000e+00
Cu 2.108738405021469975e-01 4.311871318149471666e-01 0.000000000000000000e+00
Cu 2.104579346576438692e-01 5.364650230809835385e-01 0.000000000000000000e+00
Cu 2.100462015227897994e-01 6.418255895740077044e-01 0.000000000000000000e+00
Cu 2.096211951802429141e-01 7.472658516667383122e-01 0.000000000000000000e+00
Cu 2.091475624638922948e-01 8.528020750833721353e-01 0.000000000000000000e+00
Cu 2.086018573867699510e-01 9.584418118237795214e-01 0.000000000000000000e+00
Cu 3.191082092472379839e-01 1.188521677845319653e-02 0.000000000000000000e+00
Cu 3.183492558268558037e-01 1.166913948432928422e-01 0.000000000000000000e+00
Cu 3.176190376121730274e-01 2.216314095663521055e-01 0.000000000000000000e+00
Cu 3.169281574755411501e-01 3.267049519806053959e-01 0.000000000000000000e+00
Cu 3.162758078500765291e-01 4.319009707228153583e-01 0.000000000000000000e+00
Cu 3.156533425413007854e-01 5.371996420389427707e-01 0.000000000000000000e+00
Cu 3.150467103711794281e-01 6.425836887463546310e-01 0.000000000000000000e+00
Cu 3.144290566943132026e-01 7.480419519362064840e-01 0.000000000000000000e+00
Cu 3.137663278450589788e-01 8.535680171669492999e-01 0.000000000000000000e+00
Cu 3.130261625439690887e-01 9.591680074722371829e-01 0.000000000000000000e+00
Cu 4.253950708222160038e-01 1.278128476598992293e-02 0.000000000000000000e+00
Cu 4.244020259798944039e-01 1.176071387369909821e-01 0.000000000000000000e+00
Cu 4.234349288603029282e-01 2.225685850495061624e-01 0.000000000000000000e+00
Cu 4.225107321676180860e-01 3.276626384394176195e-01 0.000000000000000000e+00
Cu 4.216380121022054173e-01 4.328768706462243210e-01 0.000000000000000000e+00
Cu 4.208162077714249771e-01 5.381933964700694739e-01 0.000000000000000000e+00
Cu 4.200338777336140028e-01 6.435918368269436529e-01 0.000000000000000000e+00
Cu 4.192647939176158967e-01 7.490512103590285520e-01 0.000000000000000000e+00
Cu 4.184651401536911286e-01 8.545533619234585432e-01 0.000000000000000000e+00
Cu 4.175800797178447210e-01 9.600963012059324786e-01 0.000000000000000000e+00
Cu 5.316352999733121587e-01 1.390908752560540522e-02 0.000000000000000000e+00
Cu 5.303975262588600526e-01 1.187533612954730783e-01 0.000000000000000000e+00
Cu 5.291870837810211947e-01 2.237381993210643960e-01 0.000000000000000000e+00
Cu 5.280327369848597518e-01 3.288568059404766708e-01 0.000000000000000000e+00
Cu 5.269513403880571323e-01 4.340892689393922588e-01 0.000000000000000000e+00
Cu 5.259478917329012404e-01 5.394098219242526859e-01 0.000000000000000000e+00
Cu 5.250181576967040131e-01 6.447973842390375410e-01 0.000000000000000000e+00
Cu 5.241400196393343203e-01 7.502324541858031992e-01 0.000000000000000000e+00
Cu 5.232627817087602828e-01 8.556958525934815762e-01 0.000000000000000000e+00
Cu 5.223054989058216746e-01 9.611668081547175557e-01 0.000000000000000000e+00
Cu 6.378327025503350844e-01 1.527817341473568062e-02 0.000000000000000000e+00
Cu 6.363334700613043626e-01 1.201342665831896389e-01 0.000000000000000000e+00
Cu 6.348661180722861008e-01 2.251342477438126322e-01 0.000000000000000000e+00
Cu 6.334817836496087207e-01 3.302713115001776889e-01 0.000000000000000000e+00
Cu 6.322101681750750268e-01 4.355119667609148593e-01 0.000000000000000000e+00
Cu 6.310614318540418433e-01 5.408142261631653236e-01 0.000000000000000000e+00
Cu 6.300226834137488963e-01 6.461431614244474986e-01 0.000000000000000000e+00
Cu 6.290729456999473168e-01 7.515061112282882538e-01 0.000000000000000000e+00
Cu 6.281704081519574601e-01 8.568973016145576826e-01 0.000000000000000000e+00
Cu 6.272383650750457118e-01 9.622878997539812129e-01 0.000000000000000000e+00
Cu 7.439928641899651307e-01 1.690968610430635885e-02 0.000000000000000000e+00
Cu 7.422149819758235845e-01 1.217679218812014186e-01 0.000000000000000000e+00
Cu 7.404713783618600553e-01 2.267611538837679963e-01 0.000000000000000000e+00
Cu 7.388470572521417257e-01 3.318908545542190169e-01 0.000000000000000000e+00
Cu 7.374123575121975804e-01 4.371195775256675464e-01 0.000000000000000000e+00
Cu 7.361767480850278655e-01 5.423620189756565013e-01 0.000000000000000000e+00
Cu 7.351057039724644415e-01 6.475819206352985136e-01 0.000000000000000000e+00
Cu 7.340990395515005762e-01 7.527810905971392685e-01 0.000000000000000000e+00
Cu 7.332039935586720514e-01 8.580469092949118970e-01 0.000000000000000000e+00
Cu 7.324032420364056106e-01 9.632739362869569000e-01 0.000000000000000000e+00
Cu 8.501118996332777122e-01 1.882494615964448725e-02 0.000000000000000000e+00
Cu 8.480472661123311662e-01 1.236895672275058894e-01 0.000000000000000000e+00
Cu 8.460200314222533491e-01 2.286523231836947445e-01 0.000000000000000000e+00
Cu 8.441314128261833138e-01 3.337151292411015824e-01 0.000000000000000000e+00
Cu 8.425450808909595857e-01 4.388674980596429798e-01 0.000000000000000000e+00
Cu 8.413542035039879297e-01 5.439919775059470775e-01 0.000000000000000000e+00
Cu 8.403126822895797821e-01 6.490012297723732893e-01 0.000000000000000000e+00
Cu 8.392776974952409486e-01 7.541281934819045185e-01 0.000000000000000000e+00
Cu 3.361312441704327192e+00 6.829630565432909250e-01 0.000000000000000000e+00
Cu 3.338755923867450459e+00 7.852344659610239752e-01 0.000000000000000000e+00
Cu 9.561785228853642016e-01 2.105278421957019683e-02 0.000000000000000000e+00
Cu 9.538067437453696673e-01 1.259231453813381418e-01 0.000000000000000000e+00
Cu 9.515277742077417056e-01 2.308907145783495041e-01 0.000000000000000000e+00
Cu 9.493877169345037448e-01 3.358190710299365223e-01 0.000000000000000000e+00
Cu 9.476282359640209041e-01 4.407121720504401652e-01 0.000000000000000000e+00
Cu 9.467379409694318682e-01 5.454069464203211703e-01 0.000000000000000000e+00
Cu 9.456549056327415714e-01 6.504054940030690179e-01 0.000000000000000000e+00
Cu 3.493371523008626855e+00 6.057405451772167604e-01 0.000000000000000000e+00
Cu 3.469082760225696394e+00 7.062392544366734581e-01 0.000000000000000000e+00
Cu 3.448956154925101991e+00 8.055158091861929215e-01 0.000000000000000000e+00
Cu 1.062159648228892639e+00 2.360944370613810364e-02 0.000000000000000000e+00
Cu 1.059474044122428626e+00 1.285235309302166229e-01 0.000000000000000000e+00
Cu 1.056885461583950470e+00 2.334710121047302300e-01 0.000000000000000000e+00
Cu 1.054640584180537966e+00 3.385233555366364278e-01 0.000000000000000000e+00
Cu 3.681474136668235086e+00 3.291081311708213275e-01 0.000000000000000000e+00
Cu 3.647308842622908998e+00 4.276242088283213616e-01 0.000000000000000000e+00
Cu 3.628163381960765044e+00 5.296705708638095311e-01 0.000000000000000000e+00
Cu 3.603107240756180385e+00 6.286952346236333034e-01 0.000000000000000000e+00
Cu 3.582669293634944463e+00 7.266831233876116514e-01 0.000000000000000000e+00
Cu 3.565590282666638355e+00 8.236696788531001623e-01 0.000000000000000000e+00
Cu 1.168036083648595236e+00 2.657011472272917396e-02 0.000000000000000000e+00
Cu 1.164950035660264005e+00 1.314944711629066620e-01 0.000000000000000000e+00
Cu 1.162147786049151810e+00 2.365733496255473245e-01 0.000000000000000000e+00
Cu 3.817567725696718650e+00 2.581184122721038587e-01 0.000000000000000000e+00
Cu 3.787084061458189765e+00 3.572434155945890533e-01 0.000000000000000000e+00
Cu 3.765141279177460554e+00 4.551468807485148371e-01 0.000000000000000000e+00
Cu 3.739169481622526270e+00 5.508438317707884391e-01 0.000000000000000000e+00
Cu 3.719350768063526491e+00 6.482864832852832659e-01 0.000000000000000000e+00
Cu 3.701859455803524046e+00 7.439699170784986881e-01 0.000000000000000000e+00
Cu 3.687668926810970138e+00 8.388271611566169295e-01 0.000000000000000000e+00
Cu 1.273716879560110149e+00 2.992773073943623061e-02 0.000000000000000000e+00
Cu 1.270274907457450420e+00 1.350073543658721620e-01 0.000000000000000000e+00
Cu 3.956961323986210033e+00 1.889930189309091402e-01 0.000000000000000000e+00
Cu 3.926427695546744534e+00 2.861923426016546035e-01 0.000000000000000000e+00
Cu 3.901595757648231633e+00 3.817943967679252593e-01 0.000000000000000000e+00
Cu 3.879509264133683910e+00 4.769276206128866824e-01 0.000000000000000000e+00
Cu 3.859058248839404293e+00 5.714307974007936108e-01 0.000000000000000000e+00
Cu 3.841044970831966054e+00 6.647763627049724233e-01 0.000000000000000000e+00
Cu 3.826278656755462304e+00 7.582342018546891493e-01 0.000000000000000000e+00
Cu 3.814389756622228678e+00 8.511189034700036293e-01 0.000000000000000000e+00
Cu 1.379223106261266318e+00 3.398168418842820171e-02 0.000000000000000000e+00
Cu 4.096440270030011099e+00 1.212924894996975783e-01 0.000000000000000000e+00
Cu 4.067536710495900820e+00 2.175047714063774174e-01 0.000000000000000000e+00
Cu 4.043191084216219977e+00 3.114232218044487577e-01 0.000000000000000000e+00
Cu 4.021624000281612155e+00 4.039002927008760180e-01 0.000000000000000000e+00
Cu 4.002051881166940994e+00 4.958828244085546344e-01 0.000000000000000000e+00
Cu 3.984270072816409325e+00 5.874835398794628905e-01 0.000000000000000000e+00
Cu 3.968516200040510533e+00 6.787464886433580702e-01 0.000000000000000000e+00
Cu 3.955298776213367340e+00 7.698627815794741869e-01 0.000000000000000000e+00
Cu 3.945182099180349677e+00 8.609439237334938211e-01 0.000000000000000000e+00
Cu 4.232579975601680644e+00 5.250583755111281475e-02 0.000000000000000000e+00
Cu 4.208375459505712790e+00 1.487909745912596726e-01 0.000000000000000000e+00
Cu 4.186567296336967559e+00 2.416706281064017747e-01 0.000000000000000000e+00
Cu 4.166754114205632575e+00 3.325645847197717386e-01 0.000000000000000000e+00
Cu 4.148351280115361028e+00 4.224055966675145934e-01 0.000000000000000000e+00
Cu 4.131049732422789944e+00 5.117175853170232713e-01 0.000000000000000000e+00
Cu 4.115000431439953310e+00 6.008614845626428780e-01 0.000000000000000000e+00
Cu 4.100616717613879914e+00 6.900310435951363397e-01 0.000000000000000000e+00
Cu 4.088539546648946477e+00 7.793495665520763227e-01 0.000000000000000000e+00
Cu 4.079512156793171584e+00 8.688039851787484613e-01 0.000000000000000000e+00
Cu 4.345451051265516895e+00 7.527939386451776294e-02 0.000000000000000000e+00
Cu 4.329085109314733337e+00 1.696650495613551413e-01 0.000000000000000000e+00
Cu 4.312821218475352936e+00 2.605814144383718500e-01 0.000000000000000000e+00
Cu 4.296914001520383941e+00 3.494539106577594367e-01 0.000000000000000000e+00
Cu 4.281183551467107051e+00 4.373176237993383064e-01 0.000000000000000000e+00
Cu 4.265676835536637235e+00 5.247538587086760797e-01 0.000000000000000000e+00
Cu 4.250748342116068557e+00 6.120454112893016774e-01 0.000000000000000000e+00
Cu 4.237037006708197495e+00 6.994442195187118294e-01 0.000000000000000000e+00
Cu 4.225415136526429194e+00 7.871865846862178273e-01 0.000000000000000000e+00
Cu 4.216909261711554890e+00 8.752978247946828771e-01 0.000000000000000000e+00
Cu 4.467686412834603438e+00 9.334562360497952738e-02 0.000000000000000000e+00
Cu 4.456966344456205320e+00 1.854005558016421085e-01 0.000000000000000000e+00
Cu 4.445602457261264462e+00 2.747520636945157690e-01 0.000000000000000000e+00
Cu 4.433104364553533294e+00 3.622803564227687900e-01 0.000000000000000000e+00
Cu 4.419491568555576677e+00 4.490731853141766150e-01 0.000000000000000000e+00
Cu 4.405296377300058630e+00 5.355755992208128813e-01 0.000000000000000000e+00
Cu 4.391086155529396962e+00 6.217649565756352414e-01 0.000000000000000000e+00
Cu 4.377474897896058259e+00 7.077918423076043908e-01 0.000000000000000000e+00
Cu 4.365542638518690843e+00 7.941526167278813997e-01 0.000000000000000000e+00
Cu 4.356799147506099423e+00 8.811543007370093994e-01 0.000000000000000000e+00
Cu 4.597240119181747353e+00 1.069104139913712864e-01 0.000000000000000000e+00
Cu 4.591698934366871043e+00 1.968871367025089303e-01 0.000000000000000000e+00
Cu 4.584781247954648364e+00 2.846511850179748171e-01 0.000000000000000000e+00
Cu 4.574908359571350225e+00 3.715588161668346157e-01 0.000000000000000000e+00
Cu 4.562611292056208079e+00 4.583735614996672370e-01 0.000000000000000000e+00
Cu 4.549286478727673000e+00 5.449030022912237925e-01 0.000000000000000000e+00
Cu 4.535686788891355903e+00 6.309776423331941997e-01 0.000000000000000000e+00
Cu 4.521844777652804126e+00 7.161994297746179239e-01 0.000000000000000000e+00
Cu 4.508629227088360558e+00 8.012673341019461715e-01 0.000000000000000000e+00
Cu 4.498401057829084060e+00 8.874237586725176596e-01 0.000000000000000000e+00
Cu 4.731844802967033914e+00 1.145545972102008925e-01 0.000000000000000000e+00
Cu 4.733391899503865297e+00 2.030962553977278540e-01 0.000000000000000000e+00
Cu 4.730651629660207469e+00 2.901618788424206730e-01 0.000000000000000000e+00
Cu 4.721515462337288582e+00 3.783085579363185680e-01 0.000000000000000000e+00
Cu 4.710000281862869898e+00 4.661871933237011767e-01 0.000000000000000000e+00
Cu 4.697191513606988167e+00 5.535172572800229895e-01 0.000000000000000000e+00
Cu 4.683839573116414634e+00 6.402293961391541943e-01 0.000000000000000000e+00
Cu 4.670521841086642922e+00 7.263173954264207088e-01 0.000000000000000000e+00
Cu 4.654761546761029045e+00 8.103275378986789512e-01 0.000000000000000000e+00
Cu 4.640032680428124223e+00 8.959345585039102389e-01 0.000000000000000000e+00
Cu 4.865025684134738349e+00 1.072148633167695625e-01 0.000000000000000000e+00
Cu 4.885024334187474615e+00 2.004229831874171086e-01 0.000000000000000000e+00
Cu 4.880861725853396393e+00 2.932586823400398224e-01 0.000000000000000000e+00
Cu 4.872584913846737642e+00 3.842977367733311778e-01 0.000000000000000000e+00
Cu 4.861255090737304663e+00 4.737188070778850513e-01 0.000000000000000000e+00
Cu 4.848680000123485989e+00 5.620260276677727651e-01 0.000000000000000000e+00
Cu 4.835602679042303897e+00 6.496567062306228824e-01 0.000000000000000000e+00
Cu 4.821577869534216632e+00 7.372689844615593069e-01 0.000000000000000000e+00
Cu 4.807298639464787193e+00 8.261597169449440559e-01 0.000000000000000000e+00
Cu 4.774535091571391554e+00 9.143381825960198439e-01 0.000000000000000000e+00
