200

Cu 0.000000000000000000e+00 3.210730644700340169e-02 0.000000000000000000e+00
Cu 0.000000000000000000e+00 1.311620813318308543e-01 0.000000000000000000e+00
Cu 0.000000000000000000e+00 2.293025156753218941e-01 0.000000000000000000e+00
Cu 0.000000000000000000e+00 3.270303456413305443e-01 0.000000000000000000e+00
Cu 0.000000000000000000e+00 4.246210179204569779e-01 0.000000000000000000e+00
Cu 0.000000000000000000e+00 5.222119417014919884e-01 0.000000000000000000e+00
Cu 0.000000000000000000e+00 6.199124288454346265e-01 0.000000000000000000e+00
Cu 0.000000000000000000e+00 7.178458411402491857e-01 0.000000000000000000e+00
Cu 0.000000000000000000e+00 8.162583325627581488e-01 0.000000000000000000e+00
Cu 0.000000000000000000e+00 9.156059011160658789e-01 0.000000000000000000e+00
Cu 1.230945254075675177e-01 3.574129478070078858e-02 0.000000000000000000e+00
Cu 1.220383544242169271e-01 1.324148226433854714e-01 0.000000000000000000e+00
Cu 1.219702167071646109e-01 2.298279430496553144e-01 0.000000000000000000e+00
Cu 1.219163156987457530e-01 3.272854547179578355e-01 0.000000000000000000e+00
Cu 1.218375445132162255e-01 4.247129469917608202e-01 0.000000000000000000e+00
Cu 1.217252380357503327e-01 5.221688768424561644e-01 0.000000000000000000e+00
Cu 1.215869516458186750e-01 6.197142255983129067e-01 0.000000000000000000e+00
Cu 1.214436335694029506e-01 7.173925237925538045e-01 0.000000000000000000e+00
Cu 1.213410160387246445e-01 8.151146504033622842e-01 0.000000000000000000e+00
Cu 1.222170068071935928e-01 9.121951433957117272e-01 0.000000000000000000e+00
Cu 2.457278271959972837e-01 3.746934366563121205e-02 0.000000000000000000e+00
Cu 2.448130816861570636e-01 1.340211240627168510e-01 0.000000000000000000e+00
Cu 2.443016662587051968e-01 2.307883267230492197e-01 0.000000000000000000e+00
Cu 2.440832921372512732e-01 3.278347964733648867e-01 0.000000000000000000e+00
Cu 2.438777008974535587e-01 4.249737538045869623e-01 0.000000000000000000e+00
Cu 2.436446788185167300e-01 5.221725587735518426e-01 0.000000000000000000e+00
Cu 2.434067133803740346e-01 6.194348896820719430e-01 0.000000000000000000e+00
Cu 2.432285707510680184e-01 7.167069990508934119e-01 0.000000000000000000e+00
Cu 2.433788617630701645e-01 8.138005534086769632e-01 0.000000000000000000e+00
Cu 2.439622074871641844e-01 9.107789058175251862e-01 0.000000000000000000e+00
Cu 3.682786142727388912e-01 3.873523655873587629e-02 0.000000000000000000e+00
Cu 3.675175097832756865e-01 1.352609800055998845e-01 0.000000000000000000e+00
Cu 3.669480128589718837e-01 2.318621684284283557e-01 0.000000000000000000e+00
Cu 3.665625154622512150e-01 3.285901579888660384e-01 0.000000000000000000e+00
Cu 3.662310363459099771e-01 4.254023844862474535e-01 0.000000000000000000e+00
Cu 3.658632903927680480e-01 5.222556481548078500e-01 0.000000000000000000e+00
Cu 3.655207485270035583e-01 6.191668333537041491e-01 0.000000000000000000e+00
Cu 3.653202147801755117e-01 7.160924075348741313e-01 0.000000000000000000e+00
Cu 3.653332572071353868e-01 8.130089206473558594e-01 0.000000000000000000e+00
Cu 3.655724056197667826e-01 9.099821911876557756e-01 0.000000000000000000e+00
Cu 4.908484866857746320e-01 3.977962383146202430e-02 0.000000000000000000e+00
Cu 4.902076128026440216e-01 1.362819606226921276e-01 0.000000000000000000e+00
Cu 4.896944568924662122e-01 2.328245922835746884e-01 0.000000000000000000e+00
Cu 4.892980738026010967e-01 3.294154792915904850e-01 0.000000000000000000e+00
Cu 4.889507118569363930e-01 4.260119956594497492e-01 0.000000000000000000e+00
Cu 4.884715601965889942e-01 5.225015711892864179e-01 0.000000000000000000e+00
Cu 4.879162778880243301e-01 6.190128188990483560e-01 0.000000000000000000e+00
Cu 4.875125067674430657e-01 7.157284359638172999e-01 0.000000000000000000e+00
Cu 4.872497813762911578e-01 8.126185993460263157e-01 0.000000000000000000e+00
Cu 4.870899682736355429e-01 9.096337371729494858e-01 0.000000000000000000e+00
Cu 6.134851233015695682e-01 4.067584962210551297e-02 0.000000000000000000e+00
Cu 6.129450674134236943e-01 1.371376886317697552e-01 0.000000000000000000e+00
Cu 6.125129907235877802e-01 2.336419482753465671e-01 0.000000000000000000e+00
Cu 6.121898762674762295e-01 3.301869389205572269e-01 0.000000000000000000e+00
Cu 6.119216020940082545e-01 4.267248331272788242e-01 0.000000000000000000e+00
Cu 6.116208876150648344e-01 5.231332674514117542e-01 0.000000000000000000e+00
Cu 6.106936991676076287e-01 6.190832151402948513e-01 0.000000000000000000e+00
Cu 6.096820896403287726e-01 7.154800286546805221e-01 0.000000000000000000e+00
Cu 6.090898868523023646e-01 8.126293085302683794e-01 0.000000000000000000e+00
Cu 6.084911960588258450e-01 9.098914524399133175e-01 0.000000000000000000e+00
Cu 7.362351279655752201e-01 4.144839616978821667e-02 0.000000000000000000e+00
Cu 7.357793210503430492e-01 1.378450211060138486e-01 0.000000000000000000e+00
Cu 7.354222723630923220e-01 2.342963364253222436e-01 0.000000000000000000e+00
Cu 7.351736884711059794e-01 3.308110789225044979e-01 0.000000000000000000e+00
Cu 7.350403505835849671e-01 4.273818385976768663e-01 0.000000000000000000e+00
Cu 7.348879264331299455e-01 5.239362055214665803e-01 0.000000000000000000e+00
Cu 7.347731464965421289e-01 6.202849925567790468e-01 0.000000000000000000e+00
Cu 7.318597294973395728e-01 7.149177124038791353e-01 0.000000000000000000e+00
Cu 7.299480521295138580e-01 8.128245593817613468e-01 0.000000000000000000e+00
Cu 7.301457802943350783e-01 9.111235692948497222e-01 0.000000000000000000e+00
Cu 8.591497214813106353e-01 4.211395131746029086e-02 0.000000000000000000e+00
Cu 8.587623759860262274e-01 1.384158689499197792e-01 0.000000000000000000e+00
Cu 8.584606820457821863e-01 2.347800434204112274e-01 0.000000000000000000e+00
Cu 8.582702736720538850e-01 3.312262026544596227e-01 0.000000000000000000e+00
Cu 8.581907564936533950e-01 4.277804729040114440e-01 0.000000000000000000e+00
Cu 8.582909468607129444e-01 5.244899387182814232e-01 0.000000000000000000e+00
Cu 8.581235310438353192e-01 6.214035667389385953e-01 0.000000000000000000e+00
Cu 8.593133984610693554e-01 7.187101129984954095e-01 0.000000000000000000e+00
Cu 8.444473030355263976e-01 8.107517702244816382e-01 0.000000000000000000e+00
Cu 8.552206167300283601e-01 9.097453006440092693e-01 0.000000000000000000e+00
Cu 9.822825547065952012e-01 4.269251985865323007e-02 0.000000000000000000e+00
Cu 9.819488670500448046e-01 1.388690417070979066e-01 0.000000000000000000e+00
Cu 9.816914985136218075e-01 2.351028304674744329e-01 0.000000000000000000e+00
Cu 9.815352498295357719e-01 3.314090597960140383e-01 0.000000000000000000e+00
Cu 9.815212033824618487e-01 4.278141648023370824e-01 0.000000000000000000e+00
Cu 9.816002430703492099e-01 5.243688398902874859e-01 0.000000000000000000e+00
Cu 9.822146829437184978e-01 6.211271860786607979e-01 0.000000000000000000e+00
Cu 9.816903809236067202e-01 7.182913884577563080e-01 0.000000000000000000e+00
Cu 9.973565522356051538e-01 8.100428406047954777e-01 0.000000000000000000e+00
Cu 9.875690978803280951e-01 9.089969419675172357e-01 0.000000000000000000e+00
Cu 1.105682733224538250e+00 4.320878657293828612e-02 0.000000000000000000e+00
Cu 1.105393470023657398e+00 1.392323059924090445e-01 0.000000000000000000e+00
Cu 1.105180150538295880e+00 2.352915550269612521e-01 0.000000000000000000e+00
Cu 1.105079764524667718e+00 3.313792923703837712e-01 0.000000000000000000e+00
Cu 1.105122171049500501e+00 4.274882655613497229e-01 0.000000000000000000e+00
Cu 1.105461013579961405e+00 5.235619465282485008e-01 0.000000000000000000e+00
Cu 1.106021169784903835e+00 6.194346317282292125e-01 0.000000000000000000e+00
Cu 1.109607679276397585e+00 7.135920219246306706e-01 0.000000000000000000e+00
Cu 1.112378604857192199e+00 8.110397364672452536e-01 0.000000000000000000e+00
Cu 1.113216525280793956e+00 9.089095437213662310e-01 0.000000000000000000e+00
Cu 1.229387187974463336e+00 4.369071518187810782e-02 0.000000000000000000e+00
Cu 1.229139876192968828e+00 1.395419334235495079e-01 0.000000000000000000e+00
Cu 1.228989793557216048e+00 2.353908790127641759e-01 0.000000000000000000e+00
Cu 1.228972897931636110e+00 3.312003174023128160e-01 0.000000000000000000e+00
Cu 1.229167289825589426e+00 4.269220414854326129e-01 0.000000000000000000e+00
Cu 1.229662635240391211e+00 5.224736425512744864e-01 0.000000000000000000e+00
Cu 1.231045731615644234e+00 6.175811847250559650e-01 0.000000000000000000e+00
Cu 1.232755134725540769e+00 7.131860504610232354e-01 0.000000000000000000e+00
Cu 1.234261729323078871e+00 8.096041965099103344e-01 0.000000000000000000e+00
Cu 1.235925103225862243e+00 9.061613504228559490e-01 0.000000000000000000e+00
Cu 1.353410548166284144e+00 4.416615499890570035e-02 0.000000000000000000e+00
Cu 1.353213942869695652e+00 1.398400636645400485e-01 0.000000000000000000e+00
Cu 1.353155894635601264e+00 2.354625930353915486e-01 0.000000000000000000e+00
Cu 1.353266190689560444e+00 3.309718877446828356e-01 0.000000000000000000e+00
Cu 1.353595829633562175e+00 4.263275235675317298e-01 0.000000000000000000e+00
Cu 1.354291229948679121e+00 5.214990945006425793e-01 0.000000000000000000e+00
Cu 1.355289885222910495e+00 6.167325484516313905e-01 0.000000000000000000e+00
Cu 1.356386803471865354e+00 7.122975215391205150e-01 0.000000000000000000e+00
Cu 1.357588747937749973e+00 8.081708769945956661e-01 0.000000000000000000e+00
Cu 1.358895060654317533e+00 9.042367376563554826e-01 0.000000000000000000e+00
Cu 1.477736677859943670e+00 4.465423144121698218e-02 0.000000000000000000e+00
Cu 1.477614959864321786e+00 1.401650859948669336e-01 0.000000000000000000e+00
Cu 1.477692396427432664e+00 2.355699139058206881e-01 0.000000000000000000e+00
Cu 1.477952892266230833e+00 3.308004004237899420e-01 0.000000000000000000e+00
Cu 1.478403092699232868e+00 4.258532297486011808e-01 0.000000000000000000e+00
Cu 1.479019085980123993e+00 5.208419749044741476e-01 0.000000000000000000e+00
Cu 1.479732895866131548e+00 6.159500613363507737e-01 0.000000000000000000e+00
Cu 1.480524158701824522e+00 7.112942512251168026e-01 0.000000000000000000e+00
Cu 1.481423815598075899e+00 8.068941161286458108e-01 0.000000000000000000e+00
Cu 1.482426632769169528e+00 9.027004351416315631e-01 0.000000000000000000e+00
Cu 1.602312408304791047e+00 4.514908196337262536e-02 0.000000000000000000e+00
Cu 1.602317409714029139e+00 1.405307336341823088e-01 0.000000000000000000e+00
Cu 1.602593273273715146e+00 2.357470320490454574e-01 0.000000000000000000e+00
Cu 1.603046555815184293e+00 3.307341435853768941e-01 0.000000000000000000e+00
Cu 1.603578951680542763e+00 4.255380353661136206e-01 0.000000000000000000e+00
Cu 1.604102171618646766e+00 5.202974983500804340e-01 0.000000000000000000e+00
Cu 1.604584786281225472e+00 6.151762894278388627e-01 0.000000000000000000e+00
Cu 1.605072055507857476e+00 7.102945754856978544e-01 0.000000000000000000e+00
Cu 1.605648141125384232e+00 8.056953386168019815e-01 0.000000000000000000e+00
Cu 1.606393655346409544e+00 9.013195932047038950e-01 0.000000000000000000e+00
Cu 1.727046203029788396e+00 4.559659896849459909e-02 0.000000000000000000e+00
Cu 1.727276228962367766e+00 1.408985167081943102e-01 0.000000000000000000e+00
Cu 1.727858115487800772e+00 2.359596421057786608e-01 0.000000000000000000e+00
Cu 1.728583612705780315e+00 3.307349079577132644e-01 0.000000000000000000e+00
Cu 1.729246167626928621e+00 4.253053196021769344e-01 0.000000000000000000e+00
Cu 1.729699835795242446e+00 5.198236657237971237e-01 0.000000000000000000e+00
Cu 1.729925763306362496e+00 6.144587195891869635e-01 0.000000000000000000e+00
Cu 1.730035634727116856e+00 7.093534723159977684e-01 0.000000000000000000e+00
Cu 1.730211454563000295e+00 8.045785978896983215e-01 0.000000000000000000e+00
Cu 1.730647274096052790e+00 9.000804801028896573e-01 0.000000000000000000e+00
Cu 1.851804474652990695e+00 4.586697927377112599e-02 0.000000000000000000e+00
Cu 1.852439907820932818e+00 1.411480719583651511e-01 0.000000000000000000e+00
Cu 1.853507892220524811e+00 2.360730820682849229e-01 0.000000000000000000e+00
Cu 1.854637208548725935e+00 3.306602966791586384e-01 0.000000000000000000e+00
Cu 1.855500233923762288e+00 4.250693130508479411e-01 0.000000000000000000e+00
Cu 1.855903360595464680e+00 5.194499022015331979e-01 0.000000000000000000e+00
Cu 1.855831198374038760e+00 6.139100134510711015e-01 0.000000000000000000e+00
Cu 1.855448945363944890e+00 7.085940527105129005e-01 0.000000000000000000e+00
Cu 1.855062205761775829e+00 8.036526603245541800e-01 0.000000000000000000e+00
Cu 1.855027365160961672e+00 8.990937498095997737e-01 0.000000000000000000e+00
Cu 1.976390096584376810e+00 4.571405427068307714e-02 0.000000000000000000e+00
Cu 1.977771071125060898e+00 1.410376345215451077e-01 0.000000000000000000e+00
Cu 1.979617945193194561e+00 2.358088024633887003e-01 0.000000000000000000e+00
Cu 1.981279196768594764e+00 3.302636593607086168e-01 0.000000000000000000e+00
Cu 1.982341102351892204e+00 4.247226237481918631e-01 0.000000000000000000e+00
Cu 1.982709447438236516e+00 5.192483526945341765e-01 0.000000000000000000e+00
Cu 1.982369473050376030e+00 6.137463476506531679e-01 0.000000000000000000e+00
Cu 1.981388439814879776e+00 7.082755343309027340e-01 0.000000000000000000e+00
Cu 1.980160749759409144e+00 8.031496188004328962e-01 0.000000000000000000e+00
Cu 1.979325626649313996e+00 8.985964868477729350e-01 0.000000000000000000e+00
Cu 2.100459867922855661e+00 4.466861043260994535e-02 0.000000000000000000e+00
Cu 2.103313058887465115e+00 1.400939943307072666e-01 0.000000000000000000e+00
Cu 2.106367452528718154e+00 2.346618308393725594e-01 0.000000000000000000e+00
Cu 2.108499225112000719e+00 3.292498943266033429e-01 0.000000000000000000e+00
Cu 2.109614549885076240e+00 4.241928530689383359e-01 0.000000000000000000e+00
Cu 2.109961465642113065e+00 5.192621720700194565e-01 0.000000000000000000e+00
Cu 2.109525140972035029e+00 6.142366637727252332e-01 0.000000000000000000e+00
Cu 2.108029550446230083e+00 7.088842018516189336e-01 0.000000000000000000e+00
Cu 2.105546900528126208e+00 8.035320022973907461e-01 0.000000000000000000e+00
Cu 2.103193118557110441e+00 8.990505377742520343e-01 0.000000000000000000e+00
Cu 2.223245666455749614e+00 4.161159156065834253e-02 0.000000000000000000e+00
Cu 2.229462423077109179e+00 1.371744667749558166e-01 0.000000000000000000e+00
Cu 2.233879314163869090e+00 2.319725328462576841e-01 0.000000000000000000e+00
Cu 2.235988633394298208e+00 3.276160533090031191e-01 0.000000000000000000e+00
Cu 2.237096405358470985e+00 4.234975843974331244e-01 0.000000000000000000e+00
Cu 2.237431599314601449e+00 5.194449982794838716e-01 0.000000000000000000e+00
Cu 2.236980626075527390e+00 6.153592116522624833e-01 0.000000000000000000e+00
Cu 2.235486508623462321e+00 7.110608513019188726e-01 0.000000000000000000e+00
Cu 2.231615638736781815e+00 8.059344554572147601e-01 0.000000000000000000e+00
Cu 2.225861070369321570e+00 9.015732564868038645e-01 0.000000000000000000e+00
Cu 2.342466163190958905e+00 3.129746685312985444e-02 0.000000000000000000e+00
Cu 2.356958627977562060e+00 1.301914220766174080e-01 0.000000000000000000e+00
Cu 2.361205097785215479e+00 2.283889995081138102e-01 0.000000000000000000e+00
Cu 2.363525793951793297e+00 3.257807610921568120e-01 0.000000000000000000e+00
Cu 2.364644367334900465e+00 4.227603229299762289e-01 0.000000000000000000e+00
Cu 2.364972973012144930e+00 5.196437545680859804e-01 0.000000000000000000e+00
Cu 2.364500056685327589e+00 6.166668021383706622e-01 0.000000000000000000e+00
Cu 2.362790905449395407e+00 7.141378769105088953e-01 0.000000000000000000e+00
Cu 2.359096701759098025e+00 8.124314815572692972e-01 0.000000000000000000e+00
Cu 2.345071482173169297e+00 9.114340044205434532e-01 0.000000000000000000e+00
