200

Cu 0.000000000000000000e+00 1.977350067956944527e-02 0.000000000000000000e+00
Cu 0.000000000000000000e+00 1.211685321748885297e-01 0.000000000000000000e+00
Cu 0.000000000000000000e+00 2.220007953015078472e-01 0.000000000000000000e+00
Cu 0.000000000000000000e+00 3.225859681685436797e-01 0.000000000000000000e+00
Cu 0.000000000000000000e+00 4.230952040939880976e-01 0.000000000000000000e+00
Cu 0.000000000000000000e+00 5.236100678921784546e-01 0.000000000000000000e+00
Cu 0.000000000000000000e+00 6.241935822444465432e-01 0.000000000000000000e+00
Cu 0.000000000000000000e+00 7.249187033455763984e-01 0.000000000000000000e+00
Cu 0.000000000000000000e+00 8.259378385562847757e-01 0.000000000000000000e+00
Cu 0.000000000000000000e+00 9.275371073620418683e-01 0.000000000000000000e+00
Cu 1.166260036829914609e-01 2.218440189154442799e-02 0.000000000000000000e+00
Cu 1.158597986639621769e-01 1.219973762819363955e-01 0.000000000000000000e+00
Cu 1.157849988479056902e-01 2.223509319342795443e-01 0.000000000000000000e+00
Cu 1.157347076371524203e-01 3.227580158121309828e-01 0.000000000000000000e+00
Cu 1.156734057833822132e-01 4.231591093612252497e-01 0.000000000000000000e+00
Cu 1.155959450118960591e-01 5.235845449960502274e-01 0.000000000000000000e+00
Cu 1.155064660399953841e-01 6.240659525866186774e-01 0.000000000000000000e+00
Cu 1.154171905579830099e-01 7.246238099772092101e-01 0.000000000000000000e+00
Cu 1.153668708701035411e-01 8.251908927010062067e-01 0.000000000000000000e+00
Cu 1.159914586022972038e-01 9.252946726332688110e-01 0.000000000000000000e+00
Cu 2.329416605089968395e-01 2.335269271689472542e-02 0.000000000000000000e+00
Cu 2.322436786084752514e-01 1.231071027839763660e-01 0.000000000000000000e+00
Cu 2.318399293661388416e-01 2.230184565732773183e-01 0.000000000000000000e+00
Cu 2.316559719812029683e-01 3.231421598955875885e-01 0.000000000000000000e+00
Cu 2.314980559478532762e-01 4.233440284588856350e-01 0.000000000000000000e+00
Cu 2.313364453486161654e-01 5.235935228460651958e-01 0.000000000000000000e+00
Cu 2.311857270803850672e-01 6.238830439134939176e-01 0.000000000000000000e+00
Cu 2.310894773274033698e-01 7.241643251046990803e-01 0.000000000000000000e+00
Cu 2.312286470389351700e-01 8.243025567655606345e-01 0.000000000000000000e+00
Cu 2.316708288225193257e-01 9.243564393139365176e-01 0.000000000000000000e+00
Cu 3.492085997413886256e-01 2.426513948605068388e-02 0.000000000000000000e+00
Cu 3.485980829896427324e-01 1.239944433731137857e-01 0.000000000000000000e+00
Cu 3.481371323581678445e-01 2.237905640332972790e-01 0.000000000000000000e+00
Cu 3.478214440358725623e-01 3.236860253949357946e-01 0.000000000000000000e+00
Cu 3.475640011186059697e-01 4.236518282369807764e-01 0.000000000000000000e+00
Cu 3.473059269931491055e-01 5.236554603233263272e-01 0.000000000000000000e+00
Cu 3.470925343743923586e-01 6.236992023869387669e-01 0.000000000000000000e+00
Cu 3.469992854596682386e-01 7.237394121602229724e-01 0.000000000000000000e+00
Cu 3.470603948009325923e-01 8.237531988143870221e-01 0.000000000000000000e+00
Cu 3.472747240933140578e-01 9.237903762967528687e-01 0.000000000000000000e+00
Cu 4.655162151012768312e-01 2.506369237237379699e-02 0.000000000000000000e+00
Cu 4.649697458103340120e-01 1.247618292709032767e-01 0.000000000000000000e+00
Cu 4.645334027366291307e-01 2.245052464096078670e-01 0.000000000000000000e+00
Cu 4.642004558195912955e-01 3.242944327737056764e-01 0.000000000000000000e+00
Cu 4.639220694005678491e-01 4.240937539796858502e-01 0.000000000000000000e+00
Cu 4.635806384023788418e-01 5.238255756464971213e-01 0.000000000000000000e+00
Cu 4.632237527400783761e-01 6.235817227217628211e-01 0.000000000000000000e+00
Cu 4.630090813654776927e-01 7.234733023641898297e-01 0.000000000000000000e+00
Cu 4.629061872258894983e-01 8.234619899154924649e-01 0.000000000000000000e+00
Cu 4.628585966693966047e-01 9.235040331430198757e-01 0.000000000000000000e+00
Cu 5.819114511568914683e-01 2.579601417868748400e-02 0.000000000000000000e+00
Cu 5.814140310973267001e-01 1.254423124274822166e-01 0.000000000000000000e+00
Cu 5.810186294344672486e-01 2.251378482522085889e-01 0.000000000000000000e+00
Cu 5.807266042720323762e-01 3.248756310121834745e-01 0.000000000000000000e+00
Cu 5.805042718658907086e-01 4.246163956091900671e-01 0.000000000000000000e+00
Cu 5.802747658777762663e-01 5.242628455451191494e-01 0.000000000000000000e+00
Cu 5.796622337719128382e-01 6.236017858185284313e-01 0.000000000000000000e+00
Cu 5.790327694643923051e-01 7.232668410642887347e-01 0.000000000000000000e+00
Cu 5.787420559681056842e-01 8.234255323717628583e-01 0.000000000000000000e+00
Cu 5.784393072920809287e-01 9.236184537838061370e-01 0.000000000000000000e+00
Cu 6.984408727245827730e-01 2.647903201457875444e-02 0.000000000000000000e+00
Cu 6.979789362907637962e-01 1.260485016525320079e-01 0.000000000000000000e+00
Cu 6.976171902672607672e-01 2.256768259007301547e-01 0.000000000000000000e+00
Cu 6.973660165739781203e-01 3.253645261918191589e-01 0.000000000000000000e+00
Cu 6.972285850272288421e-01 4.251000568977964522e-01 0.000000000000000000e+00
Cu 6.971279419651306153e-01 5.248284001272096599e-01 0.000000000000000000e+00
Cu 6.970194020232003407e-01 6.243892700595594647e-01 0.000000000000000000e+00
Cu 6.951512552810292789e-01 7.228137482542941195e-01 0.000000000000000000e+00
Cu 6.938899926009978181e-01 8.234901400057041965e-01 0.000000000000000000e+00
Cu 6.943452058399529614e-01 9.243173069457673030e-01 0.000000000000000000e+00
Cu 8.151537848032320843e-01 2.712684473503900948e-02 0.000000000000000000e+00
Cu 8.147139592586394308e-01 1.265919170108270875e-01 0.000000000000000000e+00
Cu 8.143704237318479811e-01 2.261214871870719512e-01 0.000000000000000000e+00
Cu 8.141428189256111336e-01 3.257231625593876578e-01 0.000000000000000000e+00
Cu 8.140382119057477661e-01 4.254095049343524226e-01 0.000000000000000000e+00
Cu 8.140864031754105890e-01 5.252065450599909813e-01 0.000000000000000000e+00
Cu 8.140594138682361036e-01 6.251450739914604648e-01 0.000000000000000000e+00
Cu 8.146851723954645630e-01 7.252877617703038515e-01 0.000000000000000000e+00
Cu 8.051483763772045998e-01 8.219535269337315819e-01 0.000000000000000000e+00
Cu 8.125140496694033265e-01 9.231648202034592465e-01 0.000000000000000000e+00
Cu 9.320997935160368897e-01 2.775625704524103607e-02 0.000000000000000000e+00
Cu 9.316703346345008852e-01 1.270893575704687695e-01 0.000000000000000000e+00
Cu 9.313354884335814932e-01 2.264833880936766297e-01 0.000000000000000000e+00
Cu 9.311159263698979283e-01 3.259424435054663061e-01 0.000000000000000000e+00
Cu 9.310377801722247160e-01 4.254793442038499740e-01 0.000000000000000000e+00
Cu 9.310879745453179979e-01 5.251226873013632446e-01 0.000000000000000000e+00
Cu 9.314901408135188854e-01 6.249073600969421438e-01 0.000000000000000000e+00
Cu 9.314795002607233476e-01 7.248994319704157308e-01 0.000000000000000000e+00
Cu 9.418127478784104056e-01 8.213193676940132582e-01 0.000000000000000000e+00
Cu 9.354200698160228811e-01 9.224475216422203250e-01 0.000000000000000000e+00
Cu 1.049323870016432680e+00 2.838617471033035369e-02 0.000000000000000000e+00
Cu 1.048898173977844239e+00 1.275624385126609417e-01 0.000000000000000000e+00
Cu 1.048573142206205455e+00 2.267834723757707061e-01 0.000000000000000000e+00
Cu 1.048375317617687763e+00 3.260375229546853548e-01 0.000000000000000000e+00
Cu 1.048332177308230584e+00 4.253134566772946989e-01 0.000000000000000000e+00
Cu 1.048537033453620593e+00 5.245680398546189727e-01 0.000000000000000000e+00
Cu 1.049022450480844082e+00 6.236569910754828916e-01 0.000000000000000000e+00
Cu 1.051513720541267460e+00 7.216120471267039038e-01 0.000000000000000000e+00
Cu 1.053605725379165303e+00 8.218328901728513269e-01 0.000000000000000000e+00
Cu 1.054176981438516014e+00 9.222266251457832409e-01 0.000000000000000000e+00
Cu 1.166860607708929187e+00 2.903561530957615364e-02 0.000000000000000000e+00
Cu 1.166439701748949176e+00 1.280364515516953794e-01 0.000000000000000000e+00
Cu 1.166141016567277644e+00 2.270520172984830110e-01 0.000000000000000000e+00
Cu 1.165991664690593232e+00 3.260483250112279907e-01 0.000000000000000000e+00
Cu 1.166046568161457797e+00 4.249865115023019890e-01 0.000000000000000000e+00
Cu 1.166388039608731386e+00 5.237995058111183377e-01 0.000000000000000000e+00
Cu 1.167385960452814286e+00 6.223162182710382240e-01 0.000000000000000000e+00
Cu 1.168656118643946362e+00 7.211982749157411776e-01 0.000000000000000000e+00
Cu 1.169818269753446272e+00 8.206216251704495646e-01 0.000000000000000000e+00
Cu 1.171177967619006832e+00 9.200967881790022007e-01 0.000000000000000000e+00
Cu 1.284726806962736001e+00 2.972082009964522112e-02 0.000000000000000000e+00
Cu 1.284322974538102180e+00 1.285386051496943960e-01 0.000000000000000000e+00
Cu 1.284079139895693222e+00 2.273295563431625421e-01 0.000000000000000000e+00
Cu 1.284014893877997388e+00 3.260412457077623283e-01 0.000000000000000000e+00
Cu 1.284170212353171969e+00 4.246405506225540694e-01 0.000000000000000000e+00
Cu 1.284640501840457860e+00 5.231133371675059651e-01 0.000000000000000000e+00
Cu 1.285372857194992058e+00 6.216424738404130457e-01 0.000000000000000000e+00
Cu 1.286222159243615826e+00 7.204059203513023535e-01 0.000000000000000000e+00
Cu 1.287213945922632163e+00 8.193695202966831959e-01 0.000000000000000000e+00
Cu 1.288378353604952897e+00 9.184377191137460539e-01 0.000000000000000000e+00
Cu 1.402914153008331555e+00 3.044884869722487564e-02 0.000000000000000000e+00
Cu 1.402555362741395806e+00 1.290912489713643974e-01 0.000000000000000000e+00
Cu 1.402408968154945645e+00 2.276575763138184993e-01 0.000000000000000000e+00
Cu 1.402458041900328523e+00 3.260897390733377144e-01 0.000000000000000000e+00
Cu 1.402700660253052067e+00 4.243866498041450885e-01 0.000000000000000000e+00
Cu 1.403112275471458448e+00 5.226387141125752311e-01 0.000000000000000000e+00
Cu 1.403642653483492930e+00 6.209822474369967038e-01 0.000000000000000000e+00
Cu 1.404286857812455214e+00 7.194976015700995653e-01 0.000000000000000000e+00
Cu 1.405085041026289394e+00 8.181910382054595754e-01 0.000000000000000000e+00
Cu 1.406049178719800619e+00 9.170237910014884530e-01 0.000000000000000000e+00
Cu 1.521383839615397582e+00 3.120516533643299256e-02 0.000000000000000000e+00
Cu 1.521123130100794141e+00 1.296960048196719728e-01 0.000000000000000000e+00
Cu 1.521136611382372994e+00 2.280544422219358547e-01 0.000000000000000000e+00
Cu 1.521342773822352834e+00 3.262260362995180740e-01 0.000000000000000000e+00
Cu 1.521655956316706915e+00 4.242474242512266902e-01 0.000000000000000000e+00
Cu 1.522002692263757062e+00 5.222303249287832960e-01 0.000000000000000000e+00
Cu 1.522362610508535719e+00 6.203053379349336982e-01 0.000000000000000000e+00
Cu 1.522782855918455969e+00 7.185664042356696424e-01 0.000000000000000000e+00
Cu 1.523343119364873655e+00 8.170453829545775148e-01 0.000000000000000000e+00
Cu 1.524119321279296502e+00 9.156941814192307572e-01 0.000000000000000000e+00
Cu 1.640065146870551382e+00 3.193540158976486409e-02 0.000000000000000000e+00
Cu 1.639996380111824470e+00 1.303111182396546053e-01 0.000000000000000000e+00
Cu 1.640270428300639072e+00 2.284823803015477994e-01 0.000000000000000000e+00
Cu 1.640711802834452504e+00 3.264107875689654104e-01 0.000000000000000000e+00
Cu 1.641144306848340451e+00 4.241625012991230848e-01 0.000000000000000000e+00
Cu 1.641444567521649578e+00 5.218649566427061570e-01 0.000000000000000000e+00
Cu 1.641601789331985195e+00 6.196600905297587891e-01 0.000000000000000000e+00
Cu 1.641719113771705096e+00 7.176677206771814310e-01 0.000000000000000000e+00
Cu 1.641957641645686472e+00 8.159464582933509957e-01 0.000000000000000000e+00
Cu 1.642484644440008967e+00 9.144530832554955690e-01 0.000000000000000000e+00
Cu 1.758853532377942175e+00 3.252301167016388023e-02 0.000000000000000000e+00
Cu 1.759141034506617851e+00 1.308264004156534377e-01 0.000000000000000000e+00
Cu 1.759837068821784145e+00 2.288182274221202406e-01 0.000000000000000000e+00
Cu 1.760631910627453944e+00 3.265180810823249957e-01 0.000000000000000000e+00
Cu 1.761245841262215839e+00 4.240613388821391494e-01 0.000000000000000000e+00
Cu 1.761513131794202325e+00 5.215751044427465732e-01 0.000000000000000000e+00
Cu 1.761425106648715655e+00 6.191517947547433565e-01 0.000000000000000000e+00
Cu 1.761131048258317122e+00 7.169150280373159934e-01 0.000000000000000000e+00
Cu 1.760897310716074804e+00 8.149942162275028990e-01 0.000000000000000000e+00
Cu 1.761024596909812390e+00 9.134021785512072000e-01 0.000000000000000000e+00
Cu 1.877595627076670715e+00 3.275543025975216627e-02 0.000000000000000000e+00
Cu 1.878540198915843895e+00 1.310285896717016674e-01 0.000000000000000000e+00
Cu 1.879909247532689953e+00 2.288169922140383949e-01 0.000000000000000000e+00
Cu 1.881161859997427577e+00 3.263343794531246012e-01 0.000000000000000000e+00
Cu 1.881951099845766029e+00 4.238541227918600218e-01 0.000000000000000000e+00
Cu 1.882195784721311771e+00 5.214269326694047635e-01 0.000000000000000000e+00
Cu 1.881887465802030368e+00 6.189720229562831744e-01 0.000000000000000000e+00
Cu 1.881091835767414899e+00 7.165378068356476060e-01 0.000000000000000000e+00
Cu 1.880144526660295856e+00 8.143933050085974124e-01 0.000000000000000000e+00
Cu 1.879579100144565862e+00 9.127465736909189387e-01 0.000000000000000000e+00
Cu 1.996029594459210799e+00 3.223257013096049450e-02 0.000000000000000000e+00
Cu 1.998256440540928658e+00 1.305065058652741805e-01 0.000000000000000000e+00
Cu 2.000640483911376943e+00 2.280481673099992168e-01 0.000000000000000000e+00
Cu 2.002277779089538967e+00 3.256164346051756420e-01 0.000000000000000000e+00
Cu 2.003111547537466119e+00 4.234830410756548202e-01 0.000000000000000000e+00
Cu 2.003342126418967695e+00 5.214583385102289359e-01 0.000000000000000000e+00
Cu 2.002961033442445693e+00 6.193453045466622564e-01 0.000000000000000000e+00
Cu 2.001751831701995776e+00 7.169519773540486973e-01 0.000000000000000000e+00
Cu 1.999759018613116890e+00 8.145454936777373200e-01 0.000000000000000000e+00
Cu 1.997882202889651237e+00 9.128795735247569043e-01 0.000000000000000000e+00
Cu 2.113600546290452353e+00 3.001495607583620079e-02 0.000000000000000000e+00
Cu 2.118648295058956688e+00 1.282899888639741359e-01 0.000000000000000000e+00
Cu 2.122089558765780648e+00 2.259916284272498188e-01 0.000000000000000000e+00
Cu 2.123705981524261155e+00 3.243740138310903798e-01 0.000000000000000000e+00
Cu 2.124514529652025363e+00 4.229717494299972125e-01 0.000000000000000000e+00
Cu 2.124737116532616987e+00 5.216264877371821207e-01 0.000000000000000000e+00
Cu 2.124366025615933573e+00 6.202447049661441447e-01 0.000000000000000000e+00
Cu 2.123163525784054873e+00 7.186638595090584225e-01 0.000000000000000000e+00
Cu 2.120096959004714954e+00 8.164131394508059580e-01 0.000000000000000000e+00
Cu 2.115377044490068581e+00 9.147368873109702481e-01 0.000000000000000000e+00
Cu 2.228838927331634689e+00 2.184215027492161093e-02 0.000000000000000000e+00
Cu 2.240104511156387534e+00 1.227886812232073521e-01 0.000000000000000000e+00
Cu 2.243475634353230497e+00 2.231786167511762287e-01 0.000000000000000000e+00
Cu 2.245215526966357622e+00 3.229619535063073532e-01 0.000000000000000000e+00
Cu 2.246031552968269729e+00 4.224247330664068767e-01 0.000000000000000000e+00
Cu 2.246249317783934440e+00 5.218078905279014412e-01 0.000000000000000000e+00
Cu 2.245862459617114837e+00 6.212971215957169280e-01 0.000000000000000000e+00
Cu 2.244532841069333706e+00 7.211286303165833633e-01 0.000000000000000000e+00
Cu 2.241539459062450668e+00 8.215775680403533121e-01 0.000000000000000000e+00
Cu 2.230605317024770162e+00 9.225891653227468181e-01 0.000000000000000000e+00
