200

Cu 0.000000000000000000e+00 2.800512281364653938e-02 0.000000000000000000e+00
Cu 0.000000000000000000e+00 1.278386832418824670e-01 0.000000000000000000e+00
Cu 0.000000000000000000e+00 2.268744677616810201e-01 0.000000000000000000e+00
Cu 0.000000000000000000e+00 3.255521720230808991e-01 0.000000000000000000e+00
Cu 0.000000000000000000e+00 4.241130291966456189e-01 0.000000000000000000e+00
Cu 0.000000000000000000e+00 5.226760345582136535e-01 0.000000000000000000e+00
Cu 0.000000000000000000e+00 6.213351641965939587e-01 0.000000000000000000e+00
Cu 0.000000000000000000e+00 7.201971916276825869e-01 0.000000000000000000e+00
Cu 0.000000000000000000e+00 8.194775691432191200e-01 0.000000000000000000e+00
Cu 0.000000000000000000e+00 9.195757808105678999e-01 0.000000000000000000e+00
Cu 1.209550964606058432e-01 3.124461544290664528e-02 0.000000000000000000e+00
Cu 1.199864066513984667e-01 1.289543174401556191e-01 0.000000000000000000e+00
Cu 1.199145092707644134e-01 2.273431556654117447e-01 0.000000000000000000e+00
Cu 1.198614805282190443e-01 3.257805620969732030e-01 0.000000000000000000e+00
Cu 1.197881923935452952e-01 4.241962034142530147e-01 0.000000000000000000e+00
Cu 1.196871868420915780e-01 5.226391345271508282e-01 0.000000000000000000e+00
Cu 1.195648228907509741e-01 6.211605048223238779e-01 0.000000000000000000e+00
Cu 1.194390333657711911e-01 7.197960590858657470e-01 0.000000000000000000e+00
Cu 1.193543241692169299e-01 8.184632182638557074e-01 0.000000000000000000e+00
Cu 1.201536690244759537e-01 9.165434395206010221e-01 0.000000000000000000e+00
Cu 2.414954064614963369e-01 3.279236083140453506e-02 0.000000000000000000e+00
Cu 2.406440936727256841e-01 1.304036231846795457e-01 0.000000000000000000e+00
Cu 2.401633853035026467e-01 2.282110468446736928e-01 0.000000000000000000e+00
Cu 2.399542919264838481e-01 3.262778551319914233e-01 0.000000000000000000e+00
Cu 2.397633855785211709e-01 4.244334751956628238e-01 0.000000000000000000e+00
Cu 2.395534345034403823e-01 5.226454607985226986e-01 0.000000000000000000e+00
Cu 2.393443408438285791e-01 6.209132682270865899e-01 0.000000000000000000e+00
Cu 2.391941668612045102e-01 7.191839850912102872e-01 0.000000000000000000e+00
Cu 2.393437634982062412e-01 8.172857999368577930e-01 0.000000000000000000e+00
Cu 2.398855889210334269e-01 9.152831898022013579e-01 0.000000000000000000e+00
Cu 3.619622062834215170e-01 3.394657569935887603e-02 0.000000000000000000e+00
Cu 3.612442221644144302e-01 1.315329613836526690e-01 0.000000000000000000e+00
Cu 3.607053952034963151e-01 2.291913606591690078e-01 0.000000000000000000e+00
Cu 3.603394839772832703e-01 3.269679105211933390e-01 0.000000000000000000e+00
Cu 3.600302793147139302e-01 4.248249433635030159e-01 0.000000000000000000e+00
Cu 3.596976588438360323e-01 5.227227143018204902e-01 0.000000000000000000e+00
Cu 3.593983980696213720e-01 6.206729103245735013e-01 0.000000000000000000e+00
Cu 3.592357272189916073e-01 7.186307162365299650e-01 0.000000000000000000e+00
Cu 3.592676898822989018e-01 8.165727193199699974e-01 0.000000000000000000e+00
Cu 3.595010370190119264e-01 9.145613428069798712e-01 0.000000000000000000e+00
Cu 4.824545067015972855e-01 3.491462990803808480e-02 0.000000000000000000e+00
Cu 4.818395543018631488e-01 1.324754815197510815e-01 0.000000000000000000e+00
Cu 4.813474305054596392e-01 2.300776339216162036e-01 0.000000000000000000e+00
Cu 4.809687961913427512e-01 3.277269733556795184e-01 0.000000000000000000e+00
Cu 4.806416914529959006e-01 4.253831500036127644e-01 0.000000000000000000e+00
Cu 4.802062774069421613e-01 5.229452009523648526e-01 0.000000000000000000e+00
Cu 4.797166237303198133e-01 6.205308322126212861e-01 0.000000000000000000e+00
Cu 4.793784707645854515e-01 7.182991149154484001e-01 0.000000000000000000e+00
Cu 4.791716763186144035e-01 8.162159116803745507e-01 0.000000000000000000e+00
Cu 4.790486298038487134e-01 9.142337758158705086e-01 0.000000000000000000e+00
Cu 6.030202640061010921e-01 3.576128144802996622e-02 0.000000000000000000e+00
Cu 6.024902438092444301e-01 1.332778938001506208e-01 0.000000000000000000e+00
Cu 6.020670293037913012e-01 2.308386454412955924e-01 0.000000000000000000e+00
Cu 6.017517855853464770e-01 3.284402668338356479e-01 0.000000000000000000e+00
Cu 6.014975744675729041e-01 4.260377711868936768e-01 0.000000000000000000e+00
Cu 6.012183167875633227e-01 5.235159517942019614e-01 0.000000000000000000e+00
Cu 6.003941627065818576e-01 6.205847804989006455e-01 0.000000000000000000e+00
Cu 5.995093415980902174e-01 7.180647115163738547e-01 0.000000000000000000e+00
Cu 5.990218936076047163e-01 8.162139121745035641e-01 0.000000000000000000e+00
Cu 5.985199943209791318e-01 9.144483102339716618e-01 0.000000000000000000e+00
Cu 7.237065865708985912e-01 3.650849058157459165e-02 0.000000000000000000e+00
Cu 7.232457901371834863e-01 1.339556955650422210e-01 0.000000000000000000e+00
Cu 7.228848085328015705e-01 2.314584862164467960e-01 0.000000000000000000e+00
Cu 7.226340037047060960e-01 3.290231196811731484e-01 0.000000000000000000e+00
Cu 7.224985853946868097e-01 4.266408763975488849e-01 0.000000000000000000e+00
Cu 7.223651727440212333e-01 5.242452076839857478e-01 0.000000000000000000e+00
Cu 7.222472252564211548e-01 6.216534280029215598e-01 0.000000000000000000e+00
Cu 7.196821822842934813e-01 7.175365180797040887e-01 0.000000000000000000e+00
Cu 7.179767067856761553e-01 8.163695719719915589e-01 0.000000000000000000e+00
Cu 7.182799737799516748e-01 9.155078770399527333e-01 0.000000000000000000e+00
Cu 8.445645893259799974e-01 3.717224756350324955e-02 0.000000000000000000e+00
Cu 8.441578294936800120e-01 1.345208885678672861e-01 0.000000000000000000e+00
Cu 8.438406928029695830e-01 2.319320725778570846e-01 0.000000000000000000e+00
Cu 8.436369358955909670e-01 3.294217573634835583e-01 0.000000000000000000e+00
Cu 8.435495803125750980e-01 4.270118882605580812e-01 0.000000000000000000e+00
Cu 8.436320118890704434e-01 5.247427730636845533e-01 0.000000000000000000e+00
Cu 8.435190705714850079e-01 6.226580212736256836e-01 0.000000000000000000e+00
Cu 8.445002717340953646e-01 7.208995818020536017e-01 0.000000000000000000e+00
Cu 8.314120385193202178e-01 8.144717555835222500e-01 0.000000000000000000e+00
Cu 8.410724310804592596e-01 9.141978737900351426e-01 0.000000000000000000e+00
Cu 9.656470241893846396e-01 3.777169615272633202e-02 0.000000000000000000e+00
Cu 9.652803925512237759e-01 1.349918896451111627e-01 0.000000000000000000e+00
Cu 9.649963096447817801e-01 2.322701243108084290e-01 0.000000000000000000e+00
Cu 9.648186069870385850e-01 3.296181288183152036e-01 0.000000000000000000e+00
Cu 9.647829484936846223e-01 4.270581367352206947e-01 0.000000000000000000e+00
Cu 9.648549604361796872e-01 5.246337028154872684e-01 0.000000000000000000e+00
Cu 9.653949089176485643e-01 6.223933169144225674e-01 0.000000000000000000e+00
Cu 9.650676418556404235e-01 7.204886503960913346e-01 0.000000000000000000e+00
Cu 9.789599378137819885e-01 8.137846103813939358e-01 0.000000000000000000e+00
Cu 9.702889538788894708e-01 9.134567685207506393e-01 0.000000000000000000e+00
Cu 1.087002001918865091e+00 3.832970945438663596e-02 0.000000000000000000e+00
Cu 1.086667035605893172e+00 1.353945769927903109e-01 0.000000000000000000e+00
Cu 1.086416281607524237e+00 2.324977044903668855e-01 0.000000000000000000e+00
Cu 1.086283329355839156e+00 3.296305033529172146e-01 0.000000000000000000e+00
Cu 1.086298167418819016e+00 4.267844726433560054e-01 0.000000000000000000e+00
Cu 1.086592796704473507e+00 5.239076280068236668e-01 0.000000000000000000e+00
Cu 1.087137373016996866e+00 6.208382587858504165e-01 0.000000000000000000e+00
Cu 1.090364094775282178e+00 7.162452118917070898e-01 0.000000000000000000e+00
Cu 1.092925655931179074e+00 8.146170239500017951e-01 0.000000000000000000e+00
Cu 1.093662656526761312e+00 9.133217259283192835e-01 0.000000000000000000e+00
Cu 1.208665929971859843e+00 3.887124698546202961e-02 0.000000000000000000e+00
Cu 1.208361368599624175e+00 1.357615781214602801e-01 0.000000000000000000e+00
Cu 1.208162293815876476e+00 2.326546645599815721e-01 0.000000000000000000e+00
Cu 1.208102159067572234e+00 3.295142515296091146e-01 0.000000000000000000e+00
Cu 1.208251511632051134e+00 4.262951450178543156e-01 0.000000000000000000e+00
Cu 1.208700173239782627e+00 5.229190374671517372e-01 0.000000000000000000e+00
Cu 1.209961025317471073e+00 6.191470214708325592e-01 0.000000000000000000e+00
Cu 1.211530630848205004e+00 7.158328885900298033e-01 0.000000000000000000e+00
Cu 1.212925354529250210e+00 8.132445622062266510e-01 0.000000000000000000e+00
Cu 1.214497074404656374e+00 9.107644902898058836e-01 0.000000000000000000e+00
Cu 1.330654286441726786e+00 3.942017822272298605e-02 0.000000000000000000e+00
Cu 1.330390155264266516e+00 1.361300375317750500e-01 0.000000000000000000e+00
Cu 1.330271821081800310e+00 2.327957222473479026e-01 0.000000000000000000e+00
Cu 1.330325960831091558e+00 3.293582352268512592e-01 0.000000000000000000e+00
Cu 1.330600801180222170e+00 4.257793095552871998e-01 0.000000000000000000e+00
Cu 1.331225856749152836e+00 5.220345062739979447e-01 0.000000000000000000e+00
Cu 1.332140746636392370e+00 6.183510646984156089e-01 0.000000000000000000e+00
Cu 1.333158951680436299e+00 7.149688948393999599e-01 0.000000000000000000e+00
Cu 1.334296015166736016e+00 8.118594709585498226e-01 0.000000000000000000e+00
Cu 1.335564186740328063e+00 9.089131249254029932e-01 0.000000000000000000e+00
Cu 1.452953393241520841e+00 3.999147920369362091e-02 0.000000000000000000e+00
Cu 1.452755362452993193e+00 1.365330312870992602e-01 0.000000000000000000e+00
Cu 1.452761222253322604e+00 2.329771243663427138e-01 0.000000000000000000e+00
Cu 1.452954808806231402e+00 3.292584580301431973e-01 0.000000000000000000e+00
Cu 1.453339977572720043e+00 4.253747504569352356e-01 0.000000000000000000e+00
Cu 1.453892135901411198e+00 5.214331433404542082e-01 0.000000000000000000e+00
Cu 1.454548547029540506e+00 6.176026527165212610e-01 0.000000000000000000e+00
Cu 1.455294519344371595e+00 7.139880251350373408e-01 0.000000000000000000e+00
Cu 1.456165480113543742e+00 8.106040887517588223e-01 0.000000000000000000e+00
Cu 1.457162652213813026e+00 9.074055170282491201e-01 0.000000000000000000e+00
Cu 1.575514387915258885e+00 4.057621176039842570e-02 0.000000000000000000e+00
Cu 1.575435038570273782e+00 1.369802820859529757e-01 0.000000000000000000e+00
Cu 1.575628328596258676e+00 2.332280313465034116e-01 0.000000000000000000e+00
Cu 1.576004428491457832e+00 3.292584666032397633e-01 0.000000000000000000e+00
Cu 1.576468645828987825e+00 4.251150637199511140e-01 0.000000000000000000e+00
Cu 1.576936989370595343e+00 5.209288434451532224e-01 0.000000000000000000e+00
Cu 1.577381707062240013e+00 6.168536607572312480e-01 0.000000000000000000e+00
Cu 1.577849501136806554e+00 7.130016123117487448e-01 0.000000000000000000e+00
Cu 1.578424060569452170e+00 8.094123591388924233e-01 0.000000000000000000e+00
Cu 1.579185194909491941e+00 9.060306406755437303e-01 0.000000000000000000e+00
Cu 1.698251820116326805e+00 4.111977843796944115e-02 0.000000000000000000e+00
Cu 1.698388641763768803e+00 1.374319482571219053e-01 0.000000000000000000e+00
Cu 1.698875309299966219e+00 2.335127981448668066e-01 0.000000000000000000e+00
Cu 1.699513453515262063e+00 3.293193692660983385e-01 0.000000000000000000e+00
Cu 1.700105395647768303e+00 4.249285152480108962e-01 0.000000000000000000e+00
Cu 1.700511812724165850e+00 5.204858934874132537e-01 0.000000000000000000e+00
Cu 1.700716670484394122e+00 6.161527233195229769e-01 0.000000000000000000e+00
Cu 1.700829918219054715e+00 7.120654547183676852e-01 0.000000000000000000e+00
Cu 1.701027994815223598e+00 8.082914676582084734e-01 0.000000000000000000e+00
Cu 1.701497261428808416e+00 9.047806292021352004e-01 0.000000000000000000e+00
Cu 1.821040642207246041e+00 4.149592717046723944e-02 0.000000000000000000e+00
Cu 1.821569900058717328e+00 1.377702027020950293e-01 0.000000000000000000e+00
Cu 1.822524945760683135e+00 2.336995275784161941e-01 0.000000000000000000e+00
Cu 1.823553192141817991e+00 3.293030985845700198e-01 0.000000000000000000e+00
Cu 1.824340974178225494e+00 4.247338335182022639e-01 0.000000000000000000e+00
Cu 1.824702733418520850e+00 5.201352728489425647e-01 0.000000000000000000e+00
Cu 1.824625428906025970e+00 6.156112191863452043e-01 0.000000000000000000e+00
Cu 1.824270389317344643e+00 7.113004807157143894e-01 0.000000000000000000e+00
Cu 1.823932289534887063e+00 8.073480347436232663e-01 0.000000000000000000e+00
Cu 1.823950945252523326e+00 9.037639784713777935e-01 0.000000000000000000e+00
Cu 1.943696889110700043e+00 4.146807601646599478e-02 0.000000000000000000e+00
Cu 1.944947970483099642e+00 1.377609873764894799e-01 0.000000000000000000e+00
Cu 1.946652054391774467e+00 2.335186136331924289e-01 0.000000000000000000e+00
Cu 1.948191206630095706e+00 3.289721016385305785e-01 0.000000000000000000e+00
Cu 1.949171586496603936e+00 4.244287731615337123e-01 0.000000000000000000e+00
Cu 1.949502676914034671e+00 5.199478419895787740e-01 0.000000000000000000e+00
Cu 1.949171884364029328e+00 6.154389598168019671e-01 0.000000000000000000e+00
Cu 1.948246730655947223e+00 7.109581209646023137e-01 0.000000000000000000e+00
Cu 1.947104552589224991e+00 8.068067812441629405e-01 0.000000000000000000e+00
Cu 1.946352766247395616e+00 9.032087818664156220e-01 0.000000000000000000e+00
Cu 2.065902564387325224e+00 4.058706045684576380e-02 0.000000000000000000e+00
Cu 2.068573307332158606e+00 1.369480870729915256e-01 0.000000000000000000e+00
Cu 2.071428121739667283e+00 2.324861056986029795e-01 0.000000000000000000e+00
Cu 2.073411584573599864e+00 3.280466874520852616e-01 0.000000000000000000e+00
Cu 2.074442976604393252e+00 4.239453520437993506e-01 0.000000000000000000e+00
Cu 2.074755136271657641e+00 5.199654057238695115e-01 0.000000000000000000e+00
Cu 2.074335386721595675e+00 6.158918711589944639e-01 0.000000000000000000e+00
Cu 2.072926916484605364e+00 7.115049086630738095e-01 0.000000000000000000e+00
Cu 2.070592048684293918e+00 8.071136206353355380e-01 0.000000000000000000e+00
Cu 2.068379663579088312e+00 9.035570600315684375e-01 0.000000000000000000e+00
Cu 2.186957999451685453e+00 3.778624607832675036e-02 0.000000000000000000e+00
Cu 2.192833382038661405e+00 1.342375916859381013e-01 0.000000000000000000e+00
Cu 2.196952524728176481e+00 2.299858480052443255e-01 0.000000000000000000e+00
Cu 2.198914838167329577e+00 3.265283696258212132e-01 0.000000000000000000e+00
Cu 2.199932003482746978e+00 4.233036407097955922e-01 0.000000000000000000e+00
Cu 2.200233724462732354e+00 5.201422842548346637e-01 0.000000000000000000e+00
Cu 2.199808395237634606e+00 6.169461827007934884e-01 0.000000000000000000e+00
Cu 2.198402425934851578e+00 7.135397850664370045e-01 0.000000000000000000e+00
Cu 2.194780487548420922e+00 8.093544268105995476e-01 0.000000000000000000e+00
Cu 2.189331013123740455e+00 9.058730598595480243e-01 0.000000000000000000e+00
Cu 2.304857998068485347e+00 2.811896034376195827e-02 0.000000000000000000e+00
Cu 2.318340180222477898e+00 1.277017576476278116e-01 0.000000000000000000e+00
Cu 2.322329078289734117e+00 2.266303365655764346e-01 0.000000000000000000e+00
Cu 2.324472052173876868e+00 3.248175963024154678e-01 0.000000000000000000e+00
Cu 2.325499483602332607e+00 4.226216147632793074e-01 0.000000000000000000e+00
Cu 2.325795191333896561e+00 5.203344574207168227e-01 0.000000000000000000e+00
Cu 2.325349403119098657e+00 6.181763371791237915e-01 0.000000000000000000e+00
Cu 2.323759144681262878e+00 7.164326466651127490e-01 0.000000000000000000e+00
Cu 2.320272805030326957e+00 8.154452470783827289e-01 0.000000000000000000e+00
Cu 2.307221250153758785e+00 9.151226479357261745e-01 0.000000000000000000e+00
