200

Cu 0.000000000000000000e+00 3.914556647724424382e-02 0.000000000000000000e+00
Cu 0.000000000000000000e+00 1.368596078832075014e-01 0.000000000000000000e+00
Cu 0.000000000000000000e+00 2.334592904719013928e-01 0.000000000000000000e+00
Cu 0.000000000000000000e+00 3.295542475689552386e-01 0.000000000000000000e+00
Cu 0.000000000000000000e+00 4.254775726206987407e-01 0.000000000000000000e+00
Cu 0.000000000000000000e+00 5.213978315016069010e-01 0.000000000000000000e+00
Cu 0.000000000000000000e+00 6.174504375580368576e-01 0.000000000000000000e+00
Cu 0.000000000000000000e+00 7.137867907852056826e-01 0.000000000000000000e+00
Cu 0.000000000000000000e+00 8.107046796108599018e-01 0.000000000000000000e+00
Cu 0.000000000000000000e+00 9.087580780601923758e-01 0.000000000000000000e+00
Cu 1.267628975402223246e-01 4.343307481379024559e-02 0.000000000000000000e+00
Cu 1.255742893766675639e-01 1.383399360172064552e-01 0.000000000000000000e+00
Cu 1.255150652438478120e-01 2.340792206160509925e-01 0.000000000000000000e+00
Cu 1.254597211699287340e-01 3.298536783352750690e-01 0.000000000000000000e+00
Cu 1.253716825879878927e-01 4.255836759185042673e-01 0.000000000000000000e+00
Cu 1.252400718455106698e-01 5.213437882120540712e-01 0.000000000000000000e+00
Cu 1.250746013301084480e-01 6.172119282846401100e-01 0.000000000000000000e+00
Cu 1.249016744093118941e-01 7.132451924510007091e-01 0.000000000000000000e+00
Cu 1.247669035883557515e-01 8.093448296884967474e-01 0.000000000000000000e+00
Cu 1.257595744823279404e-01 9.047182182156866537e-01 0.000000000000000000e+00
Cu 2.529928936785006965e-01 4.545954210221653247e-02 0.000000000000000000e+00
Cu 2.519854630726497957e-01 1.402001689847653942e-01 0.000000000000000000e+00
Cu 2.514303859022710141e-01 2.351893471383822432e-01 0.000000000000000000e+00
Cu 2.511993197388836530e-01 3.304873814069220206e-01 0.000000000000000000e+00
Cu 2.509698631645029265e-01 4.258822424224623093e-01 0.000000000000000000e+00
Cu 2.506976350381202590e-01 5.213418849527089449e-01 0.000000000000000000e+00
Cu 2.504094302295774011e-01 6.168781228227522284e-01 0.000000000000000000e+00
Cu 2.501808431697907231e-01 7.124377891983642019e-01 0.000000000000000000e+00
Cu 2.503253559498822556e-01 8.078068455495963640e-01 0.000000000000000000e+00
Cu 2.509682146474184750e-01 9.030410838659073125e-01 0.000000000000000000e+00
Cu 3.791296248454186224e-01 4.690754024846623821e-02 0.000000000000000000e+00
Cu 3.783064252119994197e-01 1.416179407941500212e-01 0.000000000000000000e+00
Cu 3.776934418321604148e-01 2.364115628741176589e-01 0.000000000000000000e+00
Cu 3.772800294130202459e-01 3.313461499545850009e-01 0.000000000000000000e+00
Cu 3.769135394484526280e-01 4.263698579587036352e-01 0.000000000000000000e+00
Cu 3.764867657415743585e-01 5.214337336982657334e-01 0.000000000000000000e+00
Cu 3.760677137596446507e-01 6.165641577779364946e-01 0.000000000000000000e+00
Cu 3.757962585818432344e-01 7.117224095710592557e-01 0.000000000000000000e+00
Cu 3.757695809017174149e-01 8.068852024863205630e-01 0.000000000000000000e+00
Cu 3.760129871469057861e-01 9.021197167144273665e-01 0.000000000000000000e+00
Cu 5.052763332351569714e-01 4.807517425286816914e-02 0.000000000000000000e+00
Cu 5.045991844350939948e-01 1.427645292366864771e-01 0.000000000000000000e+00
Cu 5.040566908759774867e-01 2.374945090740980536e-01 0.000000000000000000e+00
Cu 5.036345429131462437e-01 3.322754844583548084e-01 0.000000000000000000e+00
Cu 5.032560258422602573e-01 4.270607893048472548e-01 0.000000000000000000e+00
Cu 5.027039508518874600e-01 5.217178087702177836e-01 0.000000000000000000e+00
Cu 5.020346125547504590e-01 6.163912958336335013e-01 0.000000000000000000e+00
Cu 5.015102374201345636e-01 7.113039613410109263e-01 0.000000000000000000e+00
Cu 5.011443029427145035e-01 8.064366237359136269e-01 0.000000000000000000e+00
Cu 5.009219559786182163e-01 9.017348249811317773e-01 0.000000000000000000e+00
Cu 6.314793940015576146e-01 4.905061287710527768e-02 0.000000000000000000e+00
Cu 6.309270146040650840e-01 1.437053902775735359e-01 0.000000000000000000e+00
Cu 6.304835596667266451e-01 2.384014741838722529e-01 0.000000000000000000e+00
Cu 6.301496332880239803e-01 3.331393123364769226e-01 0.000000000000000000e+00
Cu 6.298574763309658930e-01 4.278658819468306729e-01 0.000000000000000000e+00
Cu 6.295228308623445068e-01 5.224487767356448265e-01 0.000000000000000000e+00
Cu 6.284184739537787001e-01 6.164905422150274150e-01 0.000000000000000000e+00
Cu 6.271866926548218535e-01 7.110319840046228634e-01 0.000000000000000000e+00
Cu 6.264022329848227821e-01 8.064626435697129780e-01 0.000000000000000000e+00
Cu 6.256421231344712064e-01 9.020564847055656532e-01 0.000000000000000000e+00
Cu 7.577837450468638547e-01 4.986263578800154139e-02 0.000000000000000000e+00
Cu 7.573383776845591386e-01 1.444595343376108010e-01 0.000000000000000000e+00
Cu 7.569895286542115409e-01 2.391113006921254669e-01 0.000000000000000000e+00
Cu 7.567447294670565094e-01 3.338302336890620614e-01 0.000000000000000000e+00
Cu 7.566146562502009676e-01 4.286109166864853770e-01 0.000000000000000000e+00
Cu 7.564233603663155225e-01 5.233702933734952767e-01 0.000000000000000000e+00
Cu 7.563246644943977248e-01 6.179141811092029313e-01 0.000000000000000000e+00
Cu 7.528010893870892284e-01 7.104152773453036307e-01 0.000000000000000000e+00
Cu 7.505545329780777264e-01 8.067163385268999454e-01 0.000000000000000000e+00
Cu 7.505320560689400233e-01 9.035707203107252727e-01 0.000000000000000000e+00
Cu 8.842399083243650537e-01 5.052873193806829005e-02 0.000000000000000000e+00
Cu 8.838852188938451926e-01 1.450382038685207875e-01 0.000000000000000000e+00
Cu 8.836092663027941274e-01 2.396110568478622693e-01 0.000000000000000000e+00
Cu 8.834408693485709119e-01 3.342728332172354433e-01 0.000000000000000000e+00
Cu 8.833712207961598173e-01 4.290560547004473868e-01 0.000000000000000000e+00
Cu 8.835025648646237517e-01 5.240190537431270723e-01 0.000000000000000000e+00
Cu 8.832214825646672596e-01 6.192185170399367999e-01 0.000000000000000000e+00
Cu 8.848175308400605399e-01 7.149334365114411449e-01 0.000000000000000000e+00
Cu 8.668566987421978398e-01 8.043381697485401105e-01 0.000000000000000000e+00
Cu 8.795226056389390257e-01 9.020778088349374890e-01 0.000000000000000000e+00
Cu 1.010902362166231860e+00 5.106990555874338367e-02 0.000000000000000000e+00
Cu 1.010622276968171862e+00 1.454602534571443895e-01 0.000000000000000000e+00
Cu 1.010408501430204220e+00 2.399080481245117469e-01 0.000000000000000000e+00
Cu 1.010286512496121558e+00 3.344337780320397746e-01 0.000000000000000000e+00
Cu 1.010308233598298688e+00 4.290703379636938708e-01 0.000000000000000000e+00
Cu 1.010391607075213916e+00 5.238803505991820320e-01 0.000000000000000000e+00
Cu 1.011145015429521621e+00 6.189258832373439878e-01 0.000000000000000000e+00
Cu 1.010224258647094642e+00 7.145065355766552218e-01 0.000000000000000000e+00
Cu 1.028969291559449051e+00 8.035980893910183998e-01 0.000000000000000000e+00
Cu 1.017270245370502924e+00 9.013224296791186863e-01 0.000000000000000000e+00
Cu 1.137821260226282716e+00 5.151366575156580974e-02 0.000000000000000000e+00
Cu 1.137605560566653962e+00 1.457563193505623522e-01 0.000000000000000000e+00
Cu 1.137452530696354103e+00 2.400318074155786408e-01 0.000000000000000000e+00
Cu 1.137405039658038186e+00 3.343347614705086124e-01 0.000000000000000000e+00
Cu 1.137490369199099627e+00 4.286599363423100884e-01 0.000000000000000000e+00
Cu 1.137904332301835630e+00 5.229423751411443888e-01 0.000000000000000000e+00
Cu 1.138471246558260042e+00 6.170157876654515094e-01 0.000000000000000000e+00
Cu 1.142677347110604202e+00 7.090458253791523946e-01 0.000000000000000000e+00
Cu 1.145777253591496514e+00 8.048953442988359130e-01 0.000000000000000000e+00
Cu 1.146814930741332228e+00 9.013314646849612810e-01 0.000000000000000000e+00
Cu 1.265034026411972823e+00 5.189311749947839170e-02 0.000000000000000000e+00
Cu 1.264878167420359523e+00 1.459688589770379574e-01 0.000000000000000000e+00
Cu 1.264806678043731702e+00 2.400352608419482614e-01 0.000000000000000000e+00
Cu 1.264858843472150385e+00 3.340535141115444917e-01 0.000000000000000000e+00
Cu 1.265125902428805071e+00 4.279702257050902459e-01 0.000000000000000000e+00
Cu 1.265691385393009849e+00 5.216979197519140410e-01 0.000000000000000000e+00
Cu 1.267275094371164146e+00 6.149003796358388785e-01 0.000000000000000000e+00
Cu 1.269215306809069022e+00 7.086591314518551066e-01 0.000000000000000000e+00
Cu 1.270913570743406718e+00 8.033751362743672964e-01 0.000000000000000000e+00
Cu 1.272716939168601069e+00 8.982864321680781305e-01 0.000000000000000000e+00
Cu 1.392553615007108503e+00 5.224306053757899609e-02 0.000000000000000000e+00
Cu 1.392464217033167362e+00 1.461485372897088353e-01 0.000000000000000000e+00
Cu 1.392502013489572921e+00 2.399922865973897201e-01 0.000000000000000000e+00
Cu 1.392701653569955456e+00 3.337079810356284870e-01 0.000000000000000000e+00
Cu 1.393117017206241481e+00 4.272520056707114766e-01 0.000000000000000000e+00
Cu 1.393923856949837781e+00 5.205825471430687301e-01 0.000000000000000000e+00
Cu 1.395057939186697293e+00 6.139732537623667774e-01 0.000000000000000000e+00
Cu 1.396285581506709006e+00 7.077431623374065284e-01 0.000000000000000000e+00
Cu 1.397592087844165887e+00 8.018822448692197735e-01 0.000000000000000000e+00
Cu 1.398949060684933743e+00 8.962643894104168618e-01 0.000000000000000000e+00
Cu 1.520359983709044460e+00 5.258980958031550523e-02 0.000000000000000000e+00
Cu 1.520358474008273175e+00 1.463426453056357046e-01 0.000000000000000000e+00
Cu 1.520548764837815314e+00 2.399773894931871709e-01 0.000000000000000000e+00
Cu 1.520914342503964622e+00 3.334212605202643842e-01 0.000000000000000000e+00
Cu 1.521466491790457676e+00 4.266686087359302659e-01 0.000000000000000000e+00
Cu 1.522183348318375540e+00 5.198416164844974485e-01 0.000000000000000000e+00
Cu 1.522989334466330114e+00 6.131459882763130587e-01 0.000000000000000000e+00
Cu 1.523853049218560907e+00 7.067191277411621897e-01 0.000000000000000000e+00
Cu 1.524794636485926613e+00 8.005893947707866110e-01 0.000000000000000000e+00
Cu 1.525796099504208803e+00 8.946997783908178237e-01 0.000000000000000000e+00
Cu 1.648393464926080076e+00 5.293287732819372537e-02 0.000000000000000000e+00
Cu 1.648530056996664328e+00 1.465714995855836866e-01 0.000000000000000000e+00
Cu 1.648934667095633300e+00 2.400327298871208215e-01 0.000000000000000000e+00
Cu 1.649508085767695587e+00 3.332483808851358087e-01 0.000000000000000000e+00
Cu 1.650146716172401273e+00 4.262675628937538930e-01 0.000000000000000000e+00
Cu 1.650756011181901517e+00 5.192401142565057359e-01 0.000000000000000000e+00
Cu 1.651298194537190289e+00 6.123447921155799056e-01 0.000000000000000000e+00
Cu 1.651814447526084084e+00 7.057145399530162511e-01 0.000000000000000000e+00
Cu 1.652387754105309359e+00 7.993973387482029569e-01 0.000000000000000000e+00
Cu 1.653098634129649191e+00 8.933274355366278563e-01 0.000000000000000000e+00
Cu 1.776553654784430947e+00 5.321943332432759605e-02 0.000000000000000000e+00
Cu 1.776927155619599796e+00 1.467991172691280044e-01 0.000000000000000000e+00
Cu 1.777655657091275154e+00 2.401263352501467330e-01 0.000000000000000000e+00
Cu 1.778515441868578684e+00 3.331526130027325783e-01 0.000000000000000000e+00
Cu 1.779286633716382626e+00 4.259646666580714225e-01 0.000000000000000000e+00
Cu 1.779813353565766310e+00 5.187252088628556690e-01 0.000000000000000000e+00
Cu 1.780071594079584596e+00 6.116135849594852569e-01 0.000000000000000000e+00
Cu 1.780174044549187151e+00 7.047819811437813220e-01 0.000000000000000000e+00
Cu 1.780309867749465313e+00 7.983054116615481144e-01 0.000000000000000000e+00
Cu 1.780684275214788670e+00 8.921241049335532081e-01 0.000000000000000000e+00
Cu 1.904694391697762779e+00 5.331483619346961966e-02 0.000000000000000000e+00
Cu 1.905490384859060971e+00 1.469020086394975944e-01 0.000000000000000000e+00
Cu 1.906729859194761900e+00 2.401204277119620700e-01 0.000000000000000000e+00
Cu 1.908012307771986604e+00 3.329860056568486604e-01 0.000000000000000000e+00
Cu 1.908989246606273671e+00 4.256673772885090634e-01 0.000000000000000000e+00
Cu 1.909455227031395363e+00 5.183226969841840948e-01 0.000000000000000000e+00
Cu 1.909390572625154769e+00 6.110652448998777908e-01 0.000000000000000000e+00
Cu 1.908964678385460356e+00 7.040466950762036547e-01 0.000000000000000000e+00
Cu 1.908498408718402484e+00 7.974248780958652638e-01 0.000000000000000000e+00
Cu 1.908373553755208452e+00 8.912028761090380335e-01 0.000000000000000000e+00
Cu 2.032598541267760073e+00 5.295903494493277991e-02 0.000000000000000000e+00
Cu 2.034171805829474877e+00 1.466280814073416261e-01 0.000000000000000000e+00
Cu 2.036233037670620138e+00 2.397248966826988070e-01 0.000000000000000000e+00
Cu 2.038077800006912632e+00 3.324896374667792864e-01 0.000000000000000000e+00
Cu 2.039261929187047961e+00 4.252606793937351859e-01 0.000000000000000000e+00
Cu 2.039685912180540406e+00 5.181056825715967262e-01 0.000000000000000000e+00
Cu 2.039331148044197572e+00 6.109236787814975589e-01 0.000000000000000000e+00
Cu 2.038263099436477876e+00 7.037776222443817842e-01 0.000000000000000000e+00
Cu 2.036901413583195097e+00 7.969975239472860684e-01 0.000000000000000000e+00
Cu 2.035934835405571075e+00 8.908134941015030117e-01 0.000000000000000000e+00
Cu 2.159883074884831888e+00 5.165330097261111586e-02 0.000000000000000000e+00
Cu 2.163001450959646910e+00 1.454813298701755631e-01 0.000000000000000000e+00
Cu 2.166356115677168681e+00 2.384054516432414228e-01 0.000000000000000000e+00
Cu 2.168713058283018746e+00 3.313452957253367193e-01 0.000000000000000000e+00
Cu 2.169953716150889278e+00 4.246654700916054348e-01 0.000000000000000000e+00
Cu 2.170351812334514463e+00 5.181188493133447315e-01 0.000000000000000000e+00
Cu 2.169888758181079957e+00 6.114769739192417175e-01 0.000000000000000000e+00
Cu 2.168255912062003077e+00 7.044883117876097334e-01 0.000000000000000000e+00
Cu 2.165544458838509545e+00 7.975080079473366723e-01 0.000000000000000000e+00
Cu 2.162977785226690930e+00 8.914467704350831356e-01 0.000000000000000000e+00
Cu 2.285667312615286217e+00 4.820179581731151575e-02 0.000000000000000000e+00
Cu 2.292384409831907277e+00 1.422513588634196635e-01 0.000000000000000000e+00
Cu 2.297267430617948136e+00 2.354330524453240592e-01 0.000000000000000000e+00
Cu 2.299597421825448684e+00 3.295423750635818050e-01 0.000000000000000000e+00
Cu 2.300843733040685457e+00 4.238942752374412204e-01 0.000000000000000000e+00
Cu 2.301227771088455665e+00 5.183155558511002292e-01 0.000000000000000000e+00
Cu 2.300732526955404644e+00 6.127070178796040212e-01 0.000000000000000000e+00
Cu 2.299101456790468401e+00 7.068862605038926938e-01 0.000000000000000000e+00
Cu 2.294831092210297907e+00 8.001587343804749120e-01 0.000000000000000000e+00
Cu 2.288621121614331955e+00 8.942978586027390264e-01 0.000000000000000000e+00
Cu 2.407178458179282110e+00 3.689759679767892070e-02 0.000000000000000000e+00
Cu 2.423306251451549098e+00 1.345844227660445702e-01 0.000000000000000000e+00
Cu 2.427931991848855997e+00 2.315121865718312577e-01 0.000000000000000000e+00
Cu 2.430530346778488227e+00 3.275253039218635753e-01 0.000000000000000000e+00
Cu 2.431786730427140331e+00 4.230788204476712000e-01 0.000000000000000000e+00
Cu 2.432163196673047256e+00 5.185285226894800203e-01 0.000000000000000000e+00
Cu 2.431645045421815254e+00 6.141349129390260009e-01 0.000000000000000000e+00
Cu 2.429741780332747236e+00 7.102444331309220038e-01 0.000000000000000000e+00
Cu 2.425735933242885611e+00 8.072877103857205583e-01 0.000000000000000000e+00
Cu 2.410120612137715668e+00 9.051053515578724173e-01 0.000000000000000000e+00
