200

Cu 0.000000000000000000e+00 -2.304859421687265649e-03 0.000000000000000000e+00
Cu 0.000000000000000000e+00 9.951368118299123988e-02 0.000000000000000000e+00
Cu 0.000000000000000000e+00 2.011802608644250034e-01 0.000000000000000000e+00
Cu 0.000000000000000000e+00 3.030581026814724299e-01 0.000000000000000000e+00
Cu 0.000000000000000000e+00 4.053475029915256655e-01 0.000000000000000000e+00
Cu 0.000000000000000000e+00 5.081531865393452696e-01 0.000000000000000000e+00
Cu 0.000000000000000000e+00 6.115543474321378792e-01 0.000000000000000000e+00
Cu 0.000000000000000000e+00 7.156235187105448592e-01 0.000000000000000000e+00
Cu 0.000000000000000000e+00 8.204173839664875567e-01 0.000000000000000000e+00
Cu 0.000000000000000000e+00 9.259405141664576178e-01 0.000000000000000000e+00
Cu 1.155802071860572433e-01 3.288239388452643950e-04 0.000000000000000000e+00
Cu 1.137996253262755081e-01 1.007070022737890785e-01 0.000000000000000000e+00
Cu 1.125818405744590245e-01 2.019890867007518298e-01 0.000000000000000000e+00
Cu 1.113526060935572243e-01 3.037860273428875657e-01 0.000000000000000000e+00
Cu 1.100831953057404416e-01 4.060796365163730770e-01 0.000000000000000000e+00
Cu 1.087611314361768139e-01 5.089201292387962594e-01 0.000000000000000000e+00
Cu 1.073747939461244943e-01 6.123618768170047133e-01 0.000000000000000000e+00
Cu 1.059066902781155700e-01 7.164724985172468141e-01 0.000000000000000000e+00
Cu 1.043310316129896220e-01 8.213674757204850740e-01 0.000000000000000000e+00
Cu 1.024558050883961346e-01 9.273249612065431746e-01 0.000000000000000000e+00
Cu 2.308017885929133373e-01 3.127453317437079751e-03 0.000000000000000000e+00
Cu 2.279192048563364326e-01 1.035273595305156863e-01 0.000000000000000000e+00
Cu 2.252045457607936008e-01 2.045235690685765773e-01 0.000000000000000000e+00
Cu 2.226277031683853158e-01 3.062335691787614889e-01 0.000000000000000000e+00
Cu 2.200315294100907981e-01 4.085682331306076387e-01 0.000000000000000000e+00
Cu 2.173710820693680879e-01 5.115085952996591967e-01 0.000000000000000000e+00
Cu 2.146084784418608726e-01 6.150675378792178627e-01 0.000000000000000000e+00
Cu 2.116863510069763865e-01 7.192902475895697201e-01 0.000000000000000000e+00
Cu 2.084976177106494521e-01 8.242880042587461542e-01 0.000000000000000000e+00
Cu 2.049720820572641655e-01 9.301718206726284910e-01 0.000000000000000000e+00
Cu 3.457079615070839385e-01 7.005219068196030449e-03 0.000000000000000000e+00
Cu 3.416863267012685279e-01 1.075185250622546912e-01 0.000000000000000000e+00
Cu 3.376565049677271446e-01 2.085907685600925654e-01 0.000000000000000000e+00
Cu 3.336671611950915994e-01 3.103286354554174453e-01 0.000000000000000000e+00
Cu 3.296923330747192349e-01 4.127610104536649227e-01 0.000000000000000000e+00
Cu 3.256771288788082308e-01 5.158557217434793785e-01 0.000000000000000000e+00
Cu 3.215691800522796906e-01 6.195896919102534817e-01 0.000000000000000000e+00
Cu 3.172742432074189267e-01 7.239565075509529768e-01 0.000000000000000000e+00
Cu 3.126656460669339221e-01 8.289777024918221215e-01 0.000000000000000000e+00
Cu 3.076135829868818505e-01 9.347490360451081726e-01 0.000000000000000000e+00
Cu 4.602272975064038429e-01 1.210779402444183729e-02 0.000000000000000000e+00
Cu 4.549798109319559414e-01 1.127784415769508414e-01 0.000000000000000000e+00
Cu 4.496349638218550271e-01 2.140362032660765579e-01 0.000000000000000000e+00
Cu 4.442640404690796352e-01 3.159576335367708100e-01 0.000000000000000000e+00
Cu 4.388991171883351861e-01 4.185664993062375161e-01 0.000000000000000000e+00
Cu 4.335371824995145618e-01 5.218478344028945060e-01 0.000000000000000000e+00
Cu 4.281472139624931672e-01 6.257668715689894690e-01 0.000000000000000000e+00
Cu 4.226426928906577007e-01 7.302738558503134580e-01 0.000000000000000000e+00
Cu 4.168422837293426220e-01 8.353164107763261237e-01 0.000000000000000000e+00
Cu 4.105007726796118805e-01 9.409253419324502543e-01 0.000000000000000000e+00
Cu 5.742802391321540911e-01 1.852125376053779734e-02 0.000000000000000000e+00
Cu 5.676987597437901378e-01 1.193582173048808454e-01 0.000000000000000000e+00
Cu 5.609664873525336271e-01 2.208431928169152236e-01 0.000000000000000000e+00
Cu 5.542058151298893121e-01 3.230252196488753169e-01 0.000000000000000000e+00
Cu 5.474891475978946875e-01 4.258795753206592316e-01 0.000000000000000000e+00
Cu 5.408441163755406400e-01 5.293440219582400408e-01 0.000000000000000000e+00
Cu 5.342770609941381865e-01 6.333800339584004790e-01 0.000000000000000000e+00
Cu 5.277415959094687858e-01 7.379607067228541872e-01 0.000000000000000000e+00
Cu 5.210469510699609064e-01 8.430189726828570818e-01 0.000000000000000000e+00
Cu 5.138065659769316396e-01 9.484337560552010826e-01 0.000000000000000000e+00
Cu 6.878117706556177158e-01 2.635575507115948957e-02 0.000000000000000000e+00
Cu 6.797527583142531915e-01 1.273322001809722714e-01 0.000000000000000000e+00
Cu 6.715103269864824975e-01 2.290189614004909113e-01 0.000000000000000000e+00
Cu 6.633161695205179731e-01 3.314725863833808961e-01 0.000000000000000000e+00
Cu 6.553097515283848873e-01 4.345931929414078021e-01 0.000000000000000000e+00
Cu 6.475487547914000608e-01 5.382154498296155554e-01 0.000000000000000000e+00
Cu 6.399965092232100528e-01 6.421966011962917387e-01 0.000000000000000000e+00
Cu 6.325987116838196478e-01 7.466259104792557499e-01 0.000000000000000000e+00
Cu 6.252756256738135621e-01 8.515687066804775718e-01 0.000000000000000000e+00
Cu 6.177427990080044395e-01 9.568147880396288274e-01 0.000000000000000000e+00
Cu 8.007620451107952952e-01 3.578108621277736184e-02 0.000000000000000000e+00
Cu 7.910799198686339073e-01 1.368531833582694868e-01 0.000000000000000000e+00
Cu 7.811697836873940926e-01 2.386280080626189959e-01 0.000000000000000000e+00
Cu 7.714285171268427943e-01 3.412407585511635921e-01 0.000000000000000000e+00
Cu 7.622242312580290724e-01 4.445951923159824348e-01 0.000000000000000000e+00
Cu 7.536367344149420555e-01 5.482681260106299082e-01 0.000000000000000000e+00
Cu 7.455351171859162518e-01 6.520449613877370432e-01 0.000000000000000000e+00
Cu 7.374270394091924086e-01 7.558881970040268738e-01 0.000000000000000000e+00
Cu 7.295778320331909317e-01 8.603350750419040960e-01 0.000000000000000000e+00
Cu 7.226070011723978448e-01 9.648738170520714252e-01 0.000000000000000000e+00
Cu 9.130123018850426764e-01 4.696543703882913312e-02 0.000000000000000000e+00
Cu 9.016021822421027565e-01 1.481576718348283916e-01 0.000000000000000000e+00
Cu 8.899407678320684356e-01 2.499131318077139896e-01 0.000000000000000000e+00
Cu 8.784565094453316014e-01 3.523487430739298820e-01 0.000000000000000000e+00
Cu 8.680340366929557572e-01 4.556539188967598797e-01 0.000000000000000000e+00
Cu 8.593219132428785434e-01 5.592172796619053754e-01 0.000000000000000000e+00
Cu 8.510888666231656297e-01 6.623335394391152153e-01 0.000000000000000000e+00
Cu 8.424479088077043709e-01 7.662220375495552016e-01 0.000000000000000000e+00
Cu 1.792823416331380537e+00 7.373424850190101187e-01 0.000000000000000000e+00
Cu 1.778881332997775955e+00 8.413649850024286225e-01 0.000000000000000000e+00
Cu 1.024395451535058177e+00 6.008839982114133615e-02 0.000000000000000000e+00
Cu 1.011094624627339789e+00 1.614018840605377092e-01 0.000000000000000000e+00
Cu 9.977615280091896022e-01 2.633485280870835887e-01 0.000000000000000000e+00
Cu 9.845985735657942772e-01 3.653401323845829607e-01 0.000000000000000000e+00
Cu 9.726874782981468348e-01 4.675447726901169609e-01 0.000000000000000000e+00
Cu 9.653938115913579532e-01 5.695081644595618720e-01 0.000000000000000000e+00
Cu 9.567716131628933862e-01 6.729857318113872111e-01 0.000000000000000000e+00
Cu 1.916822848885550767e+00 6.486183346694577301e-01 0.000000000000000000e+00
Cu 1.901092035085869991e+00 7.513618302229150281e-01 0.000000000000000000e+00
Cu 1.888871447009307536e+00 8.528777567405335658e-01 0.000000000000000000e+00
Cu 1.134643186259672643e+00 7.524661079624167526e-02 0.000000000000000000e+00
Cu 1.119336286563318072e+00 1.768458258738354605e-01 0.000000000000000000e+00
Cu 1.103988795048143068e+00 2.788744607830614397e-01 0.000000000000000000e+00
Cu 1.089608190192933534e+00 3.818744595827427424e-01 0.000000000000000000e+00
Cu 2.081644258412797655e+00 3.552709139062863453e-01 0.000000000000000000e+00
Cu 2.056292978899144863e+00 4.569610877097122770e-01 0.000000000000000000e+00
Cu 2.043592188729206338e+00 5.608394774005373007e-01 0.000000000000000000e+00
Cu 2.026719186963948260e+00 6.625369845439672556e-01 0.000000000000000000e+00
Cu 2.013832602469901811e+00 7.630382135850607428e-01 0.000000000000000000e+00
Cu 2.003818860975125293e+00 8.624817601762616581e-01 0.000000000000000000e+00
Cu 1.243535226430529494e+00 9.277686189728111266e-02 0.000000000000000000e+00
Cu 1.225761097273138978e+00 1.944419690487472485e-01 0.000000000000000000e+00
Cu 1.208670472796383955e+00 2.972965632528291602e-01 0.000000000000000000e+00
Cu 2.211068674932950451e+00 2.735385950818274847e-01 0.000000000000000000e+00
Cu 2.188398587327550882e+00 3.752144929124008876e-01 0.000000000000000000e+00
Cu 2.172938775841506853e+00 4.754410369517963475e-01 0.000000000000000000e+00
Cu 2.154533567513460035e+00 5.741210403507166493e-01 0.000000000000000000e+00
Cu 2.141663710956725364e+00 6.739007394750237134e-01 0.000000000000000000e+00
Cu 2.130933207998428003e+00 7.722014139704260760e-01 0.000000000000000000e+00
Cu 2.123011124166629848e+00 8.696786890318239927e-01 0.000000000000000000e+00
Cu 1.350559469700715942e+00 1.125995269708188057e-01 0.000000000000000000e+00
Cu 1.330363053779446636e+00 2.149793809328830185e-01 0.000000000000000000e+00
Cu 2.343931381287131632e+00 1.938889133909436069e-01 0.000000000000000000e+00
Cu 2.320606657341082180e+00 2.937257864753267111e-01 0.000000000000000000e+00
Cu 2.302349539990831584e+00 3.919604539395406539e-01 0.000000000000000000e+00
Cu 2.286734339008194006e+00 4.896865065652128979e-01 0.000000000000000000e+00
Cu 2.272746963791713259e+00 5.868104883425577789e-01 0.000000000000000000e+00
Cu 2.261037674140661924e+00 6.829225534290846999e-01 0.000000000000000000e+00
Cu 2.252222286105881377e+00 7.790616134843078022e-01 0.000000000000000000e+00
Cu 2.245898640110802091e+00 8.746892900634166690e-01 0.000000000000000000e+00
Cu 1.455502589910074862e+00 1.361168775714617085e-01 0.000000000000000000e+00
Cu 2.477358274480362166e+00 1.162390473585403622e-01 0.000000000000000000e+00
Cu 2.454924612941555395e+00 2.149907578694333909e-01 0.000000000000000000e+00
Cu 2.436611537099586666e+00 3.115781208203262098e-01 0.000000000000000000e+00
Cu 2.420948114148989028e+00 4.068377274525220022e-01 0.000000000000000000e+00
Cu 2.407240437619971196e+00 5.015906936435058361e-01 0.000000000000000000e+00
Cu 2.395262679200669265e+00 5.959707283517962084e-01 0.000000000000000000e+00
Cu 2.385151300047667622e+00 6.900503539143288956e-01 0.000000000000000000e+00
Cu 2.377291776562731940e+00 7.840091509505623391e-01 0.000000000000000000e+00
Cu 2.372096267907451317e+00 8.779367648975987537e-01 0.000000000000000000e+00
Cu 2.608170687912262142e+00 3.856789998324024887e-02 0.000000000000000000e+00
Cu 2.589386370509333180e+00 1.370239671060556885e-01 0.000000000000000000e+00
Cu 2.572796580854076698e+00 2.324859683957880008e-01 0.000000000000000000e+00
Cu 2.558215960731103689e+00 3.261980750910885019e-01 0.000000000000000000e+00
Cu 2.545100658940095073e+00 4.189273615297536280e-01 0.000000000000000000e+00
Cu 2.533133777466289427e+00 5.111465357872148063e-01 0.000000000000000000e+00
Cu 2.522374874701859948e+00 6.031946890257767757e-01 0.000000000000000000e+00
Cu 2.513122354719638185e+00 6.952736516595607874e-01 0.000000000000000000e+00
Cu 2.505876097091007892e+00 7.875152837652877880e-01 0.000000000000000000e+00
Cu 2.501225421863500831e+00 8.799184583826226147e-01 0.000000000000000000e+00
Cu 2.720775701826823489e+00 5.582286250643042624e-02 0.000000000000000000e+00
Cu 2.708491917241795388e+00 1.522484932476748098e-01 0.000000000000000000e+00
Cu 2.696585889048219276e+00 2.457805620818128145e-01 0.000000000000000000e+00
Cu 2.685274206849364464e+00 3.375105770758465851e-01 0.000000000000000000e+00
Cu 2.674356221932263633e+00 4.283261603911580062e-01 0.000000000000000000e+00
Cu 2.663775230678191885e+00 5.187363378993113949e-01 0.000000000000000000e+00
Cu 2.653751375844094262e+00 6.090018319544246994e-01 0.000000000000000000e+00
Cu 2.644772243989845784e+00 6.993705061961156266e-01 0.000000000000000000e+00
Cu 2.637549170928952247e+00 7.900894364653547886e-01 0.000000000000000000e+00
Cu 2.632932033343724942e+00 8.812167852753969299e-01 0.000000000000000000e+00
Cu 2.841148318972949838e+00 6.918799681865837881e-02 0.000000000000000000e+00
Cu 2.833512477434835031e+00 1.634003764272964621e-01 0.000000000000000000e+00
Cu 2.825763365783517056e+00 2.553387298244335635e-01 0.000000000000000000e+00
Cu 2.817363174328578967e+00 3.457066914712728090e-01 0.000000000000000000e+00
Cu 2.808210844595314448e+00 4.354464064124142220e-01 0.000000000000000000e+00
Cu 2.798658766384117591e+00 5.249282045823286946e-01 0.000000000000000000e+00
Cu 2.789088796969655171e+00 6.141124050970836468e-01 0.000000000000000000e+00
Cu 2.779927579729503773e+00 7.031365447630200105e-01 0.000000000000000000e+00
Cu 2.772059639339565340e+00 7.924967006133212255e-01 0.000000000000000000e+00
Cu 2.766774057993007130e+00 8.825500918310184018e-01 0.000000000000000000e+00
Cu 2.967485746296365079e+00 7.892051168181236920e-02 0.000000000000000000e+00
Cu 2.964243161724886555e+00 1.711991294457812507e-01 0.000000000000000000e+00
Cu 2.960316682743487693e+00 2.615343187682081516e-01 0.000000000000000000e+00
Cu 2.954145424649087914e+00 3.512118767895252014e-01 0.000000000000000000e+00
Cu 2.946094567022673694e+00 4.408995044041281175e-01 0.000000000000000000e+00
Cu 2.937249433108544139e+00 5.303695248582168675e-01 0.000000000000000000e+00
Cu 2.928120892214544746e+00 6.194095909920982468e-01 0.000000000000000000e+00
Cu 2.918602285634465332e+00 7.076633645576222431e-01 0.000000000000000000e+00
Cu 2.909253291529080965e+00 7.957493439211144048e-01 0.000000000000000000e+00
Cu 2.902132754891349364e+00 8.849465488238378308e-01 0.000000000000000000e+00
Cu 3.097734447057854279e+00 8.372256742141871710e-02 0.000000000000000000e+00
Cu 3.100868352164280584e+00 1.746054126530034722e-01 0.000000000000000000e+00
Cu 3.100449646165274853e+00 2.641963870113811508e-01 0.000000000000000000e+00
Cu 3.094919650328362692e+00 3.549111880200100932e-01 0.000000000000000000e+00
Cu 3.087515229546458961e+00 4.455052077232762864e-01 0.000000000000000000e+00
Cu 3.079110626664339989e+00 5.356905736969755916e-01 0.000000000000000000e+00
Cu 3.070218438380262427e+00 6.253681074335157852e-01 0.000000000000000000e+00
Cu 3.061070116198094659e+00 7.144273159325569278e-01 0.000000000000000000e+00
Cu 3.049411100331000046e+00 8.016702039971275173e-01 0.000000000000000000e+00
Cu 3.037605634144269207e+00 8.902314964294328892e-01 0.000000000000000000e+00
Cu 3.226492241177658205e+00 7.524241569457931766e-02 0.000000000000000000e+00
Cu 3.245476657201979975e+00 1.703376232277301616e-01 0.000000000000000000e+00
Cu 3.244141234062138057e+00 2.650864200362362255e-01 0.000000000000000000e+00
Cu 3.239318527473038056e+00 3.583160143329429115e-01 0.000000000000000000e+00
Cu 3.232131052259232362e+00 4.502621174541155957e-01 0.000000000000000000e+00
Cu 3.223955876605478554e+00 5.413429471127645387e-01 0.000000000000000000e+00
Cu 3.215288131364727242e+00 6.319386857459234896e-01 0.000000000000000000e+00
Cu 3.205653925164379192e+00 7.226427124004897173e-01 0.000000000000000000e+00
Cu 3.195048660819825415e+00 8.144137151889946358e-01 0.000000000000000000e+00
Cu 3.167560710193634499e+00 9.060422314973201052e-01 0.000000000000000000e+00
