200

Cu 0.000000000000000000e+00 3.715742033439580622e-02 0.000000000000000000e+00
Cu 0.000000000000000000e+00 1.352508997558991011e-01 0.000000000000000000e+00
Cu 0.000000000000000000e+00 2.322865661295536455e-01 0.000000000000000000e+00
Cu 0.000000000000000000e+00 3.288433368059225370e-01 0.000000000000000000e+00
Cu 0.000000000000000000e+00 4.252381559596792870e-01 0.000000000000000000e+00
Cu 0.000000000000000000e+00 5.216308475979154480e-01 0.000000000000000000e+00
Cu 0.000000000000000000e+00 6.181494820103264898e-01 0.000000000000000000e+00
Cu 0.000000000000000000e+00 7.149375931992942856e-01 0.000000000000000000e+00
Cu 0.000000000000000000e+00 8.122785147662521243e-01 0.000000000000000000e+00
Cu 0.000000000000000000e+00 9.106983663657234329e-01 0.000000000000000000e+00
Cu 1.257257517447487039e-01 4.126310439804987962e-02 0.000000000000000000e+00
Cu 1.245724296488527755e-01 1.366678762080096310e-01 0.000000000000000000e+00
Cu 1.245104202529104392e-01 2.328801388883041945e-01 0.000000000000000000e+00
Cu 1.244555049351125514e-01 3.291304189813146208e-01 0.000000000000000000e+00
Cu 1.243700914176405353e-01 4.253403420173930138e-01 0.000000000000000000e+00
Cu 1.242439482375082005e-01 5.215799366829991790e-01 0.000000000000000000e+00
Cu 1.240861670592490057e-01 6.179223287230027895e-01 0.000000000000000000e+00
Cu 1.239215726994759015e-01 7.144207574767427182e-01 0.000000000000000000e+00
Cu 1.237960783674975085e-01 8.109789918226135708e-01 0.000000000000000000e+00
Cu 1.247576274133476298e-01 9.068337641549064632e-01 0.000000000000000000e+00
Cu 2.509378577581043990e-01 4.320657473374049651e-02 0.000000000000000000e+00
Cu 2.499547111868687110e-01 1.384582092850179247e-01 0.000000000000000000e+00
Cu 2.494109320250542383e-01 2.339490107717012435e-01 0.000000000000000000e+00
Cu 2.491831116233141075e-01 3.297408492403276492e-01 0.000000000000000000e+00
Cu 2.489602835595524088e-01 4.256285182985065640e-01 0.000000000000000000e+00
Cu 2.486991340423531094e-01 5.215796966152169700e-01 0.000000000000000000e+00
Cu 2.484252593679737442e-01 6.176037945145530506e-01 0.000000000000000000e+00
Cu 2.482112742064092326e-01 7.136472354687021236e-01 0.000000000000000000e+00
Cu 2.483583135570444633e-01 8.095029166372175178e-01 0.000000000000000000e+00
Cu 2.489858229738882156e-01 9.052294564550816824e-01 0.000000000000000000e+00
Cu 3.760591672789460049e-01 4.460418126523104515e-02 0.000000000000000000e+00
Cu 3.752521614204327727e-01 1.398270590111668488e-01 0.000000000000000000e+00
Cu 3.746504352879697075e-01 2.351307014600188261e-01 0.000000000000000000e+00
Cu 3.742442925333768211e-01 3.305713808892295491e-01 0.000000000000000000e+00
Cu 3.738873759101635219e-01 4.260999837679290136e-01 0.000000000000000000e+00
Cu 3.734771997034029289e-01 5.216691606547845250e-01 0.000000000000000000e+00
Cu 3.730801173354478251e-01 6.173025456040968084e-01 0.000000000000000000e+00
Cu 3.728295035739763730e-01 7.129597372954308288e-01 0.000000000000000000e+00
Cu 3.728150012627772791e-01 8.086173762024325695e-01 0.000000000000000000e+00
Cu 3.730579387803346636e-01 9.043428254179592951e-01 0.000000000000000000e+00
Cu 5.011927885221156842e-01 4.573779162523870095e-02 0.000000000000000000e+00
Cu 5.005250128644735952e-01 1.409391272625046543e-01 0.000000000000000000e+00
Cu 4.999900881485773163e-01 2.361807143025997646e-01 0.000000000000000000e+00
Cu 4.995747404859271490e-01 3.314723977434632651e-01 0.000000000000000000e+00
Cu 4.992046687269562355e-01 4.267686795229035379e-01 0.000000000000000000e+00
Cu 4.986730387984226187e-01 5.219426293619905399e-01 0.000000000000000000e+00
Cu 4.980362087721465492e-01 6.171347447534543118e-01 0.000000000000000000e+00
Cu 4.975470158897675743e-01 7.125565064626369072e-01 0.000000000000000000e+00
Cu 4.972112079903418524e-01 8.081853198434750807e-01 0.000000000000000000e+00
Cu 4.970064986882978264e-01 9.039683000168010629e-01 0.000000000000000000e+00
Cu 6.263855539391254279e-01 4.669137770745301202e-02 0.000000000000000000e+00
Cu 6.258362043611086500e-01 1.418565412003311987e-01 0.000000000000000000e+00
Cu 6.253956189760233597e-01 2.370630728498074602e-01 0.000000000000000000e+00
Cu 6.250645126335757640e-01 3.323108954171682394e-01 0.000000000000000000e+00
Cu 6.247791705558727315e-01 4.275485097645850829e-01 0.000000000000000000e+00
Cu 6.244538280668414654e-01 5.226460821325680239e-01 0.000000000000000000e+00
Cu 6.233997672060784812e-01 6.172257001646948016e-01 0.000000000000000000e+00
Cu 6.222306776566360886e-01 7.122910970608082870e-01 0.000000000000000000e+00
Cu 6.215022529366037718e-01 8.082078285112522797e-01 0.000000000000000000e+00
Cu 6.207870981852110503e-01 9.042731923503890545e-01 0.000000000000000000e+00
Cu 7.516829565327125540e-01 4.749251178454298034e-02 0.000000000000000000e+00
Cu 7.512345768787135336e-01 1.425977290945850684e-01 0.000000000000000000e+00
Cu 7.508833675746102720e-01 2.377575252873819767e-01 0.000000000000000000e+00
Cu 7.506376146679484274e-01 3.329832854779394280e-01 0.000000000000000000e+00
Cu 7.505067168204311301e-01 4.282690646356837050e-01 0.000000000000000000e+00
Cu 7.503272898720378947e-01 5.235349074782317258e-01 0.000000000000000000e+00
Cu 7.502227292380172496e-01 6.185873039478229085e-01 0.000000000000000000e+00
Cu 7.468736663066590786e-01 7.116892592416949048e-01 0.000000000000000000e+00
Cu 7.447194783791365458e-01 8.084462671253119792e-01 0.000000000000000000e+00
Cu 7.447638956963733570e-01 9.057097167871095422e-01 0.000000000000000000e+00
Cu 8.771358134487218239e-01 4.815850788251871406e-02 0.000000000000000000e+00
Cu 8.767721614027197408e-01 1.431741873869973036e-01 0.000000000000000000e+00
Cu 8.764891801276200045e-01 2.382527049600096647e-01 0.000000000000000000e+00
Cu 8.763147798572923364e-01 3.334180450644488314e-01 0.000000000000000000e+00
Cu 8.762428849445891288e-01 4.287010210753869899e-01 0.000000000000000000e+00
Cu 8.763653213706147360e-01 5.241568260510854893e-01 0.000000000000000000e+00
Cu 8.761190515819897717e-01 6.198401429438733512e-01 0.000000000000000000e+00
Cu 8.775941967073480621e-01 7.160032730830095948e-01 0.000000000000000000e+00
Cu 8.605147977041942564e-01 8.061557508629516589e-01 0.000000000000000000e+00
Cu 8.726468071430988349e-01 9.042495717494323237e-01 0.000000000000000000e+00
Cu 1.002798446912064323e+00 4.871014907741672006e-02 0.000000000000000000e+00
Cu 1.002503776040902350e+00 1.436048375264310228e-01 0.000000000000000000e+00
Cu 1.002278117113226230e+00 2.385567126917015612e-01 0.000000000000000000e+00
Cu 1.002146889283450859e+00 3.335848383632614711e-01 0.000000000000000000e+00
Cu 1.002158722837084959e+00 4.287203783429812676e-01 0.000000000000000000e+00
Cu 1.002241930537570935e+00 5.240226157228299320e-01 0.000000000000000000e+00
Cu 1.002954510176513159e+00 6.195515681206499314e-01 0.000000000000000000e+00
Cu 1.002153134760357833e+00 7.155780149938004708e-01 0.000000000000000000e+00
Cu 1.020022253171389615e+00 8.054236925836145700e-01 0.000000000000000000e+00
Cu 1.008863910626699667e+00 9.034955311071303230e-01 0.000000000000000000e+00
Cu 1.128720790429886822e+00 4.917418421604748124e-02 0.000000000000000000e+00
Cu 1.128485112962226200e+00 1.439195527338628655e-01 0.000000000000000000e+00
Cu 1.128315702121369224e+00 2.386983773621441096e-01 0.000000000000000000e+00
Cu 1.128253748619795660e+00 3.335048193517079484e-01 0.000000000000000000e+00
Cu 1.128327582873763557e+00 4.283330834362411021e-01 0.000000000000000000e+00
Cu 1.128720375871629544e+00 5.231206911345519517e-01 0.000000000000000000e+00
Cu 1.129287866527645123e+00 6.177007648860033395e-01 0.000000000000000000e+00
Cu 1.133317992164047272e+00 7.103302199721515109e-01 0.000000000000000000e+00
Cu 1.136328506438564867e+00 8.066331777871296183e-01 0.000000000000000000e+00
Cu 1.137306456221852224e+00 9.034749797973988805e-01 0.000000000000000000e+00
Cu 1.254940172691287437e+00 4.958227152959245737e-02 0.000000000000000000e+00
Cu 1.254759524185717678e+00 1.441590541763530797e-01 0.000000000000000000e+00
Cu 1.254666666873279102e+00 2.387282924043011567e-01 0.000000000000000000e+00
Cu 1.254700071123843186e+00 3.332516125242201976e-01 0.000000000000000000e+00
Cu 1.254947211319508371e+00 4.276770996407412428e-01 0.000000000000000000e+00
Cu 1.255494104652241205e+00 5.219184738438146232e-01 0.000000000000000000e+00
Cu 1.257022067807724852e+00 6.156574049614235156e-01 0.000000000000000000e+00
Cu 1.258897968018940272e+00 7.099370143870873395e-01 0.000000000000000000e+00
Cu 1.260541833996907890e+00 8.051339677007001150e-01 0.000000000000000000e+00
Cu 1.262307700293224588e+00 9.005098900726048461e-01 0.000000000000000000e+00
Cu 1.381470046378610039e+00 4.996723901201773066e-02 0.000000000000000000e+00
Cu 1.381351633034676230e+00 1.443716101531941909e-01 0.000000000000000000e+00
Cu 1.381363440848140112e+00 2.387169307648929484e-01 0.000000000000000000e+00
Cu 1.381538797049991718e+00 3.329380903008606896e-01 0.000000000000000000e+00
Cu 1.381930999845193631e+00 4.269923153808364846e-01 0.000000000000000000e+00
Cu 1.382707445720017692e+00 5.208411601917055656e-01 0.000000000000000000e+00
Cu 1.383804173146350180e+00 6.147509711661383047e-01 0.000000000000000000e+00
Cu 1.384995229869655509e+00 7.090270318138990335e-01 0.000000000000000000e+00
Cu 1.386272838677889085e+00 8.036551227402626285e-01 0.000000000000000000e+00
Cu 1.387617123188848556e+00 8.985120068288531270e-01 0.000000000000000000e+00
Cu 1.508291433446605767e+00 5.035337261800987979e-02 0.000000000000000000e+00
Cu 1.508257472954787293e+00 1.446020319635833717e-01 0.000000000000000000e+00
Cu 1.508417234234893822e+00 2.387356982223030888e-01 0.000000000000000000e+00
Cu 1.508754392104650899e+00 3.326827692227390942e-01 0.000000000000000000e+00
Cu 1.509278938070797382e+00 4.264383211918107430e-01 0.000000000000000000e+00
Cu 1.509968326419560025e+00 5.201223913162801304e-01 0.000000000000000000e+00
Cu 1.510748954172031810e+00 6.139346841708388514e-01 0.000000000000000000e+00
Cu 1.511592710339569878e+00 7.080067604426482086e-01 0.000000000000000000e+00
Cu 1.512523179687790487e+00 8.023644184740011953e-01 0.000000000000000000e+00
Cu 1.513526190260088722e+00 8.969529943207358302e-01 0.000000000000000000e+00
Cu 1.635346397209338498e+00 5.073866837191607498e-02 0.000000000000000000e+00
Cu 1.635447584175875546e+00 1.448688251199862498e-01 0.000000000000000000e+00
Cu 1.635817500232089827e+00 2.388245921965687080e-01 0.000000000000000000e+00
Cu 1.636358524815308524e+00 3.325389511137472054e-01 0.000000000000000000e+00
Cu 1.636968458994999320e+00 4.260602566397262980e-01 0.000000000000000000e+00
Cu 1.637554394813378389e+00 5.195354945182197870e-01 0.000000000000000000e+00
Cu 1.638080355312881098e+00 6.131394136015138052e-01 0.000000000000000000e+00
Cu 1.638588867860752529e+00 7.070014670539911394e-01 0.000000000000000000e+00
Cu 1.639163491309105325e+00 8.011683056342843168e-01 0.000000000000000000e+00
Cu 1.639884950136673680e+00 8.955761412737008875e-01 0.000000000000000000e+00
Cu 1.762536853269978554e+00 5.106989909861695681e-02 0.000000000000000000e+00
Cu 1.762871942693533978e+00 1.451352914316677012e-01 0.000000000000000000e+00
Cu 1.763561110419027633e+00 2.389509924426301557e-01 0.000000000000000000e+00
Cu 1.764384854378852285e+00 3.324694651440602278e-01 0.000000000000000000e+00
Cu 1.765126857748157585e+00 4.257759764340802722e-01 0.000000000000000000e+00
Cu 1.765633891736931194e+00 5.190307020379986147e-01 0.000000000000000000e+00
Cu 1.765883444719408057e+00 6.124102733016276723e-01 0.000000000000000000e+00
Cu 1.765988150291920800e+00 7.060645099491467125e-01 0.000000000000000000e+00
Cu 1.766135421844960973e+00 8.000673533046830377e-01 0.000000000000000000e+00
Cu 1.766527547018275746e+00 8.943607986001600452e-01 0.000000000000000000e+00
Cu 1.889719949131350774e+00 5.121365861723356505e-02 0.000000000000000000e+00
Cu 1.890473254667123681e+00 1.452786973962285622e-01 0.000000000000000000e+00
Cu 1.891666956058631444e+00 2.389778272326772701e-01 0.000000000000000000e+00
Cu 1.892908541117311438e+00 3.323277232618521704e-01 0.000000000000000000e+00
Cu 1.893855087432146034e+00 4.254947457787997545e-01 0.000000000000000000e+00
Cu 1.894304276027054978e+00 5.186349460663595146e-01 0.000000000000000000e+00
Cu 1.894237673621220308e+00 6.118603022468468433e-01 0.000000000000000000e+00
Cu 1.893823766138461373e+00 7.053207041295931345e-01 0.000000000000000000e+00
Cu 1.893379493484422138e+00 7.991722448464324557e-01 0.000000000000000000e+00
Cu 1.893279794246263803e+00 8.934195021417939975e-01 0.000000000000000000e+00
Cu 2.016683900948885277e+00 5.091353332906621565e-02 0.000000000000000000e+00
Cu 2.018206483400942552e+00 1.450495472555291265e-01 0.000000000000000000e+00
Cu 2.020210729054041199e+00 2.386178243017474387e-01 0.000000000000000000e+00
Cu 2.022006660849550386e+00 3.318578890770820244e-01 0.000000000000000000e+00
Cu 2.023158317042182297e+00 4.251035650950737432e-01 0.000000000000000000e+00
Cu 2.023567567069104456e+00 5.184212019453845466e-01 0.000000000000000000e+00
Cu 2.023216910762298149e+00 6.117115885609705206e-01 0.000000000000000000e+00
Cu 2.022172471387065240e+00 7.050366565496016813e-01 0.000000000000000000e+00
Cu 2.020847208601367129e+00 7.987223592625979363e-01 0.000000000000000000e+00
Cu 2.019916410455396161e+00 8.929987314048447589e-01 0.000000000000000000e+00
Cu 2.143056530281164829e+00 4.967858449650076891e-02 0.000000000000000000e+00
Cu 2.146105535168489009e+00 1.439575455404636106e-01 0.000000000000000000e+00
Cu 2.149380201353771724e+00 2.373441890399129450e-01 0.000000000000000000e+00
Cu 2.151676878279455085e+00 3.307478879345355227e-01 0.000000000000000000e+00
Cu 2.152884305704096946e+00 4.245251173357949548e-01 0.000000000000000000e+00
Cu 2.153268950378027125e+00 5.184338172512354959e-01 0.000000000000000000e+00
Cu 2.152813291916083838e+00 6.122471839434941998e-01 0.000000000000000000e+00
Cu 2.151217906044643691e+00 7.057189873043586692e-01 0.000000000000000000e+00
Cu 2.148568329081017581e+00 7.991968387868483292e-01 0.000000000000000000e+00
Cu 2.146058409270720890e+00 8.935816873908380975e-01 0.000000000000000000e+00
Cu 2.267988343192801182e+00 4.633312359788401696e-02 0.000000000000000000e+00
Cu 2.274573951437107500e+00 1.408095358471366521e-01 0.000000000000000000e+00
Cu 2.279330217853357432e+00 2.344468792728548467e-01 0.000000000000000000e+00
Cu 2.281601532400939103e+00 3.289892488228719492e-01 0.000000000000000000e+00
Cu 2.282810657758654216e+00 4.237734444757801366e-01 0.000000000000000000e+00
Cu 2.283181922623405580e+00 5.186261259010181979e-01 0.000000000000000000e+00
Cu 2.282699284511047644e+00 6.134479529184659885e-01 0.000000000000000000e+00
Cu 2.281105296464994936e+00 7.080569494744273218e-01 0.000000000000000000e+00
Cu 2.276944888592729033e+00 8.017808320825908774e-01 0.000000000000000000e+00
Cu 2.270855749396428536e+00 8.963431117428686257e-01 0.000000000000000000e+00
Cu 2.388847795143522301e+00 3.529455306972615475e-02 0.000000000000000000e+00
Cu 2.404524129335302796e+00 1.333260556753732284e-01 0.000000000000000000e+00
Cu 2.409050080804315819e+00 2.306149199042885622e-01 0.000000000000000000e+00
Cu 2.411573058337382669e+00 3.270197329609024206e-01 0.000000000000000000e+00
Cu 2.412792695064915005e+00 4.229780871882851123e-01 0.000000000000000000e+00
Cu 2.413156666385589677e+00 5.188347087033076122e-01 0.000000000000000000e+00
Cu 2.412651171128222582e+00 6.148433247279060376e-01 0.000000000000000000e+00
Cu 2.410801755731886598e+00 7.113397905733335191e-01 0.000000000000000000e+00
Cu 2.406878692526818853e+00 8.087388197082533425e-01 0.000000000000000000e+00
Cu 2.391704124603995840e+00 9.068950872395794560e-01 0.000000000000000000e+00
