200

Cu 0.000000000000000000e+00 5.425487145497593505e-02 0.000000000000000000e+00
Cu 0.000000000000000000e+00 1.490654990184918927e-01 0.000000000000000000e+00
Cu 0.000000000000000000e+00 2.423292609528993335e-01 0.000000000000000000e+00
Cu 0.000000000000000000e+00 3.348974819978446926e-01 0.000000000000000000e+00
Cu 0.000000000000000000e+00 4.272223326489172357e-01 0.000000000000000000e+00
Cu 0.000000000000000000e+00 5.195370656961283418e-01 0.000000000000000000e+00
Cu 0.000000000000000000e+00 6.120319426851970057e-01 0.000000000000000000e+00
Cu 0.000000000000000000e+00 7.049167245080965039e-01 0.000000000000000000e+00
Cu 0.000000000000000000e+00 7.985956865997352327e-01 0.000000000000000000e+00
Cu 0.000000000000000000e+00 8.938412572130157718e-01 0.000000000000000000e+00
Cu 1.347220160985849180e-01 5.985865850500384638e-02 0.000000000000000000e+00
Cu 1.333143641531784884e-01 1.510033465281528653e-01 0.000000000000000000e+00
Cu 1.332812984226995345e-01 2.431410771934991444e-01 0.000000000000000000e+00
Cu 1.332213051922053471e-01 3.352868951094346572e-01 0.000000000000000000e+00
Cu 1.331123392139472728e-01 4.273567458329265989e-01 0.000000000000000000e+00
Cu 1.329379006439715682e-01 5.194593588781117877e-01 0.000000000000000000e+00
Cu 1.327126105628766983e-01 6.117090049968180177e-01 0.000000000000000000e+00
Cu 1.324759597413932566e-01 7.041927107702413702e-01 0.000000000000000000e+00
Cu 1.322654854763617716e-01 7.967976345398466442e-01 0.000000000000000000e+00
Cu 1.334503413724138499e-01 8.885287673731531166e-01 0.000000000000000000e+00
Cu 2.687889266722735537e-01 6.248472125829406670e-02 0.000000000000000000e+00
Cu 2.676389880525529841e-01 1.533526011888102780e-01 0.000000000000000000e+00
Cu 2.670200678087076840e-01 2.445410995240071550e-01 0.000000000000000000e+00
Cu 2.667704496109713497e-01 3.360854906383229368e-01 0.000000000000000000e+00
Cu 2.664916065622166541e-01 4.277291581339471849e-01 0.000000000000000000e+00
Cu 2.661332301251181920e-01 5.194444570795409000e-01 0.000000000000000000e+00
Cu 2.657306701455938724e-01 6.112637619659716526e-01 0.000000000000000000e+00
Cu 2.653805929675759900e-01 7.031427704355776021e-01 0.000000000000000000e+00
Cu 2.654832280892161500e-01 7.948226337759338733e-01 0.000000000000000000e+00
Cu 2.662075173556782137e-01 8.863216491539864794e-01 0.000000000000000000e+00
Cu 4.027563251915651787e-01 6.429400747385549675e-02 0.000000000000000000e+00
Cu 4.018384148098516628e-01 1.551133130906060531e-01 0.000000000000000000e+00
Cu 4.011611608724846012e-01 2.460413649892280452e-01 0.000000000000000000e+00
Cu 4.007043923304696720e-01 3.371385401935343973e-01 0.000000000000000000e+00
Cu 4.002699915395068198e-01 4.283297612143887045e-01 0.000000000000000000e+00
Cu 3.997161305818731636e-01 5.195544854368804311e-01 0.000000000000000000e+00
Cu 3.991183059788987464e-01 6.108610697607582685e-01 0.000000000000000000e+00
Cu 3.986660876576924029e-01 7.022311607542920386e-01 0.000000000000000000e+00
Cu 3.985215619576112922e-01 7.936428008781785115e-01 0.000000000000000000e+00
Cu 3.987500745016674952e-01 8.851477293941776292e-01 0.000000000000000000e+00
Cu 5.367214182137876044e-01 6.570613560078542026e-02 0.000000000000000000e+00
Cu 5.359898892595970077e-01 1.565038357243991873e-01 0.000000000000000000e+00
Cu 5.354037832888852710e-01 2.473523994139190940e-01 0.000000000000000000e+00
Cu 5.349383231978960263e-01 3.382619173623318543e-01 0.000000000000000000e+00
Cu 5.345014515246198084e-01 4.291758654374301374e-01 0.000000000000000000e+00
Cu 5.337935994539115825e-01 5.199176569666612568e-01 0.000000000000000000e+00
Cu 5.328658722069958831e-01 6.106578461176104256e-01 0.000000000000000000e+00
Cu 5.320416707814091817e-01 7.017021086919716932e-01 0.000000000000000000e+00
Cu 5.314203600649389791e-01 7.930673922554577482e-01 0.000000000000000000e+00
Cu 5.310632610817100918e-01 8.846811777267546972e-01 0.000000000000000000e+00
Cu 6.707255821990647515e-01 6.684114783242897651e-02 0.000000000000000000e+00
Cu 6.701568911617372670e-01 1.576140292910478413e-01 0.000000000000000000e+00
Cu 6.696964945786841872e-01 2.484345493146290496e-01 0.000000000000000000e+00
Cu 6.693444923359426202e-01 3.393049760955637040e-01 0.000000000000000000e+00
Cu 6.689959382738401850e-01 4.301586388315405962e-01 0.000000000000000000e+00
Cu 6.685958377320073698e-01 5.208494279092736878e-01 0.000000000000000000e+00
Cu 6.670938004754458639e-01 6.108250858191142108e-01 0.000000000000000000e+00
Cu 6.653663190044820652e-01 7.013827734040845030e-01 0.000000000000000000e+00
Cu 6.641054838981105268e-01 7.930980252519157503e-01 0.000000000000000000e+00
Cu 6.630244852682530832e-01 8.850943083759086338e-01 0.000000000000000000e+00
Cu 8.048081996609052213e-01 6.773671691549078278e-02 0.000000000000000000e+00
Cu 8.043829605938097593e-01 1.584665265858150318e-01 0.000000000000000000e+00
Cu 8.040500149942781949e-01 2.492599509331180074e-01 0.000000000000000000e+00
Cu 8.038070338876474041e-01 3.401337443734945287e-01 0.000000000000000000e+00
Cu 8.036808256878579249e-01 4.310856744114874850e-01 0.000000000000000000e+00
Cu 8.033736152794566099e-01 5.220059867146766841e-01 0.000000000000000000e+00
Cu 8.033545990292114691e-01 6.127118797473157796e-01 0.000000000000000000e+00
Cu 7.984201105410174693e-01 7.006631246241803446e-01 0.000000000000000000e+00
Cu 7.955235864519312194e-01 7.934304843670697549e-01 0.000000000000000000e+00
Cu 7.948875313249095242e-01 8.871310753316887787e-01 0.000000000000000000e+00
Cu 9.390156518653234308e-01 6.841036984912941821e-02 0.000000000000000000e+00
Cu 9.387184755765746180e-01 1.590690843745789507e-01 0.000000000000000000e+00
Cu 9.384867151641844707e-01 2.498015244978259997e-01 0.000000000000000000e+00
Cu 9.383572827814326001e-01 3.406429506523150352e-01 0.000000000000000000e+00
Cu 9.382892597095644494e-01 4.316365276007426144e-01 0.000000000000000000e+00
Cu 9.384954020827334098e-01 5.228642199333792817e-01 0.000000000000000000e+00
Cu 9.378745218694098940e-01 6.143944029537898865e-01 0.000000000000000000e+00
Cu 9.405502284694146065e-01 7.067358138624179054e-01 0.000000000000000000e+00
Cu 9.156345656583085857e-01 7.903043598540915315e-01 0.000000000000000000e+00
Cu 9.324054060574668013e-01 8.853391505882606261e-01 0.000000000000000000e+00
Cu 1.073402228954038584e+00 6.888330278933335604e-02 0.000000000000000000e+00
Cu 1.073215075212508696e+00 1.594381373709055361e-01 0.000000000000000000e+00
Cu 1.073078219511804487e+00 2.500581570657411934e-01 0.000000000000000000e+00
Cu 1.073013457540476390e+00 3.407727803407399891e-01 0.000000000000000000e+00
Cu 1.073106117233058932e+00 4.316258589037399451e-01 0.000000000000000000e+00
Cu 1.073161666830875438e+00 5.227053829490483361e-01 0.000000000000000000e+00
Cu 1.074276502801741584e+00 6.140848325222791892e-01 0.000000000000000000e+00
Cu 1.072262739632659834e+00 7.063121747438166897e-01 0.000000000000000000e+00
Cu 1.097901369505837055e+00 7.895210295345319595e-01 0.000000000000000000e+00
Cu 1.082019523968988928e+00 8.845871199306338806e-01 0.000000000000000000e+00
Cu 1.208018067330579148e+00 6.918783875775297298e-02 0.000000000000000000e+00
Cu 1.207930384150675884e+00 1.596089496611308722e-01 0.000000000000000000e+00
Cu 1.207882959557074587e+00 2.500634578257325824e-01 0.000000000000000000e+00
Cu 1.207932649145071702e+00 3.405479991289902530e-01 0.000000000000000000e+00
Cu 1.208088869950030286e+00 4.310612169438332586e-01 0.000000000000000000e+00
Cu 1.208668034262457391e+00 5.215160823803520751e-01 0.000000000000000000e+00
Cu 1.209170548104067544e+00 6.117676049874621880e-01 0.000000000000000000e+00
Cu 1.214775066772446621e+00 6.992600872743408580e-01 0.000000000000000000e+00
Cu 1.218476881298597991e+00 7.915990532765010412e-01 0.000000000000000000e+00
Cu 1.220048689626944460e+00 8.849098249815608996e-01 0.000000000000000000e+00
Cu 1.342900527164169189e+00 6.936778132729581881e-02 0.000000000000000000e+00
Cu 1.342903482634913770e+00 1.596367891312489851e-01 0.000000000000000000e+00
Cu 1.342971664828785050e+00 2.498878729280678834e-01 0.000000000000000000e+00
Cu 1.343147054657932493e+00 3.400790453869834140e-01 0.000000000000000000e+00
Cu 1.343552741943778939e+00 4.301447945679114371e-01 0.000000000000000000e+00
Cu 1.344232973579210233e+00 5.199937827425903381e-01 0.000000000000000000e+00
Cu 1.346231406478217929e+00 6.091455538185014396e-01 0.000000000000000000e+00
Cu 1.348651930004063360e+00 6.989481397567429699e-01 0.000000000000000000e+00
Cu 1.350785894307336532e+00 7.899912621237729082e-01 0.000000000000000000e+00
Cu 1.352828263096267358e+00 8.813632195319867080e-01 0.000000000000000000e+00
Cu 1.478058177387233441e+00 6.947282062123119606e-02 0.000000000000000000e+00
Cu 1.478154862318595830e+00 1.595899676859345306e-01 0.000000000000000000e+00
Cu 1.478361923581453796e+00 2.496307792353739674e-01 0.000000000000000000e+00
Cu 1.478723276841423129e+00 3.395204759720187870e-01 0.000000000000000000e+00
Cu 1.479291463981899923e+00 4.292102982619555585e-01 0.000000000000000000e+00
Cu 1.480309274200489522e+00 5.186292457142627210e-01 0.000000000000000000e+00
Cu 1.481714195776916210e+00 6.080948741435311389e-01 0.000000000000000000e+00
Cu 1.483223487764289139e+00 6.980253864773171557e-01 0.000000000000000000e+00
Cu 1.484744858033592019e+00 7.884548408457795476e-01 0.000000000000000000e+00
Cu 1.486169394918805287e+00 8.792343623411271736e-01 0.000000000000000000e+00
Cu 1.613463886407906500e+00 6.954417511745634994e-02 0.000000000000000000e+00
Cu 1.613669804913106409e+00 1.595334383642130205e-01 0.000000000000000000e+00
Cu 1.614058888557866389e+00 2.493877779450977827e-01 0.000000000000000000e+00
Cu 1.614611332168949698e+00 3.390272087650150201e-01 0.000000000000000000e+00
Cu 1.615348020212788782e+00 4.284390369735772142e-01 0.000000000000000000e+00
Cu 1.616254466350344199e+00 5.177554369805240642e-01 0.000000000000000000e+00
Cu 1.617244449957054631e+00 6.072209196740980808e-01 0.000000000000000000e+00
Cu 1.618256693081336461e+00 6.970178543371299273e-01 0.000000000000000000e+00
Cu 1.619275232188363667e+00 7.871959170106407333e-01 0.000000000000000000e+00
Cu 1.620246855966352539e+00 8.776764937297208968e-01 0.000000000000000000e+00
Cu 1.749047080590746317e+00 6.959230362671182946e-02 0.000000000000000000e+00
Cu 1.749408889788372168e+00 1.594996619258254866e-01 0.000000000000000000e+00
Cu 1.750038009369511149e+00 2.492151540200745197e-01 0.000000000000000000e+00
Cu 1.750823592708928622e+00 3.386630079224946521e-01 0.000000000000000000e+00
Cu 1.751653094251921505e+00 4.278951937404940065e-01 0.000000000000000000e+00
Cu 1.752422251105315132e+00 5.170773592251559636e-01 0.000000000000000000e+00
Cu 1.753079382925472274e+00 6.064138785053717617e-01 0.000000000000000000e+00
Cu 1.753650879512197891e+00 6.960619041633543391e-01 0.000000000000000000e+00
Cu 1.754209437434561147e+00 7.860777831049233777e-01 0.000000000000000000e+00
Cu 1.754829683203409596e+00 8.763793452151442676e-01 0.000000000000000000e+00
Cu 1.884693730077752427e+00 6.956758521750540381e-02 0.000000000000000000e+00
Cu 1.885309266061358180e+00 1.594576892583758065e-01 0.000000000000000000e+00
Cu 1.886290507749392997e+00 2.490850236142923557e-01 0.000000000000000000e+00
Cu 1.887384176326860175e+00 3.383945242314471136e-01 0.000000000000000000e+00
Cu 1.888346917930865176e+00 4.274803758661747111e-01 0.000000000000000000e+00
Cu 1.889005591019577990e+00 5.165189547129359626e-01 0.000000000000000000e+00
Cu 1.889323812677111247e+00 6.057046492115698566e-01 0.000000000000000000e+00
Cu 1.889409813415551920e+00 6.952029349094345223e-01 0.000000000000000000e+00
Cu 1.889460350020387258e+00 7.850936890248806366e-01 0.000000000000000000e+00
Cu 1.889698214788007702e+00 8.753028124415906941e-01 0.000000000000000000e+00
Cu 2.020237670342790004e+00 6.932830130095361809e-02 0.000000000000000000e+00
Cu 2.021298620641537536e+00 1.592804110468327150e-01 0.000000000000000000e+00
Cu 2.022829670827447135e+00 2.488573363257332027e-01 0.000000000000000000e+00
Cu 2.024374014903536523e+00 3.380673096051177162e-01 0.000000000000000000e+00
Cu 2.025546627782682574e+00 4.270903939225368928e-01 0.000000000000000000e+00
Cu 2.026122186566893468e+00 5.160951721951912985e-01 0.000000000000000000e+00
Cu 2.026070712816537611e+00 6.052006417955273498e-01 0.000000000000000000e+00
Cu 2.025562912320673536e+00 6.945664337188587334e-01 0.000000000000000000e+00
Cu 2.024942135124622844e+00 7.843573171656583742e-01 0.000000000000000000e+00
Cu 2.024636477931206713e+00 8.745620312845544531e-01 0.000000000000000000e+00
Cu 2.155427554391325717e+00 6.859240974882571673e-02 0.000000000000000000e+00
Cu 2.157308968045124509e+00 1.587022495027798630e-01 0.000000000000000000e+00
Cu 2.159731227572952772e+00 2.482290100821280265e-01 0.000000000000000000e+00
Cu 2.161887505214899807e+00 3.374068747446479222e-01 0.000000000000000000e+00
Cu 2.163278354191579655e+00 4.265977791268604213e-01 0.000000000000000000e+00
Cu 2.163795721355906032e+00 5.158772186567389673e-01 0.000000000000000000e+00
Cu 2.163412203102893727e+00 6.051321146811404761e-01 0.000000000000000000e+00
Cu 2.162185182065195832e+00 6.944307762753825219e-01 0.000000000000000000e+00
Cu 2.160576794165996795e+00 7.841222753311106741e-01 0.000000000000000000e+00
Cu 2.159369395787710033e+00 8.744253801085334343e-01 0.000000000000000000e+00
Cu 2.289806535424536271e+00 6.681307684015307113e-02 0.000000000000000000e+00
Cu 2.293339249873811880e+00 1.571989958557158396e-01 0.000000000000000000e+00
Cu 2.297206429835680908e+00 2.466258174138535875e-01 0.000000000000000000e+00
Cu 2.299957220551405168e+00 3.360570289530319665e-01 0.000000000000000000e+00
Cu 2.301407539873549180e+00 4.259125711019962623e-01 0.000000000000000000e+00
Cu 2.301888707111735766e+00 5.159100444930921903e-01 0.000000000000000000e+00
Cu 2.301373764684907730e+00 6.058172391911775811e-01 0.000000000000000000e+00
Cu 2.299481454959031890e+00 6.953454491017677652e-01 0.000000000000000000e+00
Cu 2.296355143751434458e+00 7.848997810796507490e-01 0.000000000000000000e+00
Cu 2.293427596422645376e+00 8.754298689597838079e-01 0.000000000000000000e+00
Cu 2.422273167391884474e+00 6.267566457187639939e-02 0.000000000000000000e+00
Cu 2.429784706436775021e+00 1.534716702333913663e-01 0.000000000000000000e+00
Cu 2.435543937374091250e+00 2.431881558193129400e-01 0.000000000000000000e+00
Cu 2.438245504535518027e+00 3.339932934805735498e-01 0.000000000000000000e+00
Cu 2.439737654089816576e+00 4.250341607767347263e-01 0.000000000000000000e+00
Cu 2.440199115549199327e+00 5.161493780735074699e-01 0.000000000000000000e+00
Cu 2.439605503925771579e+00 6.072441021144802109e-01 0.000000000000000000e+00
Cu 2.437727349358565387e+00 6.981430604167262466e-01 0.000000000000000000e+00
Cu 2.432669511089589953e+00 7.879809697808923818e-01 0.000000000000000000e+00
Cu 2.425706828578409358e+00 8.788907415407601897e-01 0.000000000000000000e+00
Cu 2.548912003276369909e+00 4.966493185813529443e-02 0.000000000000000000e+00
Cu 2.568290329718419862e+00 1.446202299661671076e-01 0.000000000000000000e+00
Cu 2.573516040448014408e+00 2.387320562689897452e-01 0.000000000000000000e+00
Cu 2.576632265523925547e+00 3.316974065541312133e-01 0.000000000000000000e+00
Cu 2.578123534003422090e+00 4.241084235226949550e-01 0.000000000000000000e+00
Cu 2.578575288522154008e+00 5.164016756062582703e-01 0.000000000000000000e+00
Cu 2.577965674414814501e+00 6.088842909237208723e-01 0.000000000000000000e+00
Cu 2.575668142103909375e+00 7.019800841489148846e-01 0.000000000000000000e+00
Cu 2.571150728659839846e+00 7.962440228309386470e-01 0.000000000000000000e+00
Cu 2.552326393806624516e+00 8.913704399118582700e-01 0.000000000000000000e+00
