200

Cu 0.000000000000000000e+00 1.875681989087672058e-02 0.000000000000000000e+00
Cu 0.000000000000000000e+00 1.203450328663311086e-01 0.000000000000000000e+00
Cu 0.000000000000000000e+00 2.213996929323776841e-01 0.000000000000000000e+00
Cu 0.000000000000000000e+00 3.222210893124603515e-01 0.000000000000000000e+00
Cu 0.000000000000000000e+00 4.229715812219430049e-01 0.000000000000000000e+00
Cu 0.000000000000000000e+00 5.237280749852533113e-01 0.000000000000000000e+00
Cu 0.000000000000000000e+00 6.245497643817284894e-01 0.000000000000000000e+00
Cu 0.000000000000000000e+00 7.255053846194916556e-01 0.000000000000000000e+00
Cu 0.000000000000000000e+00 8.267394167408944616e-01 0.000000000000000000e+00
Cu 0.000000000000000000e+00 9.285238818814504080e-01 0.000000000000000000e+00
Cu 1.160852261362978755e-01 2.106130442613335721e-02 0.000000000000000000e+00
Cu 1.153469026527419172e-01 1.211371870555292829e-01 0.000000000000000000e+00
Cu 1.152723111777741588e-01 2.217346496874278705e-01 0.000000000000000000e+00
Cu 1.152225399379364079e-01 3.223858557542554903e-01 0.000000000000000000e+00
Cu 1.151628859126921922e-01 4.230329004829515571e-01 0.000000000000000000e+00
Cu 1.150884804248147736e-01 5.237038346570598302e-01 0.000000000000000000e+00
Cu 1.150032105625431456e-01 6.244279121158001766e-01 0.000000000000000000e+00
Cu 1.149186232436587574e-01 7.252237709719454584e-01 0.000000000000000000e+00
Cu 1.148724250248839285e-01 8.260263101541311936e-01 0.000000000000000000e+00
Cu 1.154733185808071022e-01 9.263822841944892028e-01 0.000000000000000000e+00
Cu 2.318741223778769123e-01 2.218074381287286900e-02 0.000000000000000000e+00
Cu 2.311979710500876861e-01 1.222022695118487878e-01 0.000000000000000000e+00
Cu 2.308054927889541530e-01 2.223757632467152079e-01 0.000000000000000000e+00
Cu 2.306254660445814231e-01 3.227550096968326288e-01 0.000000000000000000e+00
Cu 2.304721207010333173e-01 4.232107316098437932e-01 0.000000000000000000e+00
Cu 2.303168080804701978e-01 5.237127967300504450e-01 0.000000000000000000e+00
Cu 2.301734491074098332e-01 6.242528918087010270e-01 0.000000000000000000e+00
Cu 2.300837239991957439e-01 7.247836349468358419e-01 0.000000000000000000e+00
Cu 2.302207477166592908e-01 8.251751870259336208e-01 0.000000000000000000e+00
Cu 2.306489877484418916e-01 9.254847360085179941e-01 0.000000000000000000e+00
Cu 3.476180117642098111e-01 2.306117639837112696e-02 0.000000000000000000e+00
Cu 3.470232476025275070e-01 1.230573715426263454e-01 0.000000000000000000e+00
Cu 3.465738640983781482e-01 2.231198099518444389e-01 0.000000000000000000e+00
Cu 3.462657315782161627e-01 3.232790649758912060e-01 0.000000000000000000e+00
Cu 3.460156088838832744e-01 4.235071057945008488e-01 0.000000000000000000e+00
Cu 3.457673378128043318e-01 5.237723530325749666e-01 0.000000000000000000e+00
Cu 3.455646166902639482e-01 6.240760455800270501e-01 0.000000000000000000e+00
Cu 3.454794115417146871e-01 7.243750677319853448e-01 0.000000000000000000e+00
Cu 3.455433202071084287e-01 8.246466560834726511e-01 0.000000000000000000e+00
Cu 3.457545785997339638e-01 9.249385361410557005e-01 0.000000000000000000e+00
Cu 4.634046179841196933e-01 2.383666718015195474e-02 0.000000000000000000e+00
Cu 4.628687240807468073e-01 1.238009171454636376e-01 0.000000000000000000e+00
Cu 4.624410152097132021e-01 2.238110383153658067e-01 0.000000000000000000e+00
Cu 4.621150391907642985e-01 3.238667639093758543e-01 0.000000000000000000e+00
Cu 4.618437450434276781e-01 4.239330895656586162e-01 0.000000000000000000e+00
Cu 4.615148071708007893e-01 5.239352884716115266e-01 0.000000000000000000e+00
Cu 4.611746659506693602e-01 6.239615668598460507e-01 0.000000000000000000e+00
Cu 4.609746377450966159e-01 7.241170659039640745e-01 0.000000000000000000e+00
Cu 4.608838509274913453e-01 8.243633892259809581e-01 0.000000000000000000e+00
Cu 4.608457652580728037e-01 9.246572842376962198e-01 0.000000000000000000e+00
Cu 5.792805673367850128e-01 2.455277585382940539e-02 0.000000000000000000e+00
Cu 5.787889703272728337e-01 1.244643086330210202e-01 0.000000000000000000e+00
Cu 5.783984621705913209e-01 2.244257770027684451e-01 0.000000000000000000e+00
Cu 5.781104035623392257e-01 3.244297009254998310e-01 0.000000000000000000e+00
Cu 5.778926770934148527e-01 4.244375653712729179e-01 0.000000000000000000e+00
Cu 5.776702218180673754e-01 5.243546771031760700e-01 0.000000000000000000e+00
Cu 5.770847142389382567e-01 6.239772495508872918e-01 0.000000000000000000e+00
Cu 5.764872174304458419e-01 7.239140250951144884e-01 0.000000000000000000e+00
Cu 5.762197067161413111e-01 8.243218405106257363e-01 0.000000000000000000e+00
Cu 5.759418851256190575e-01 9.247580982686824935e-01 0.000000000000000000e+00
Cu 6.952921637091818985e-01 2.522581452609586050e-02 0.000000000000000000e+00
Cu 6.948316040474253885e-01 1.250597872997874782e-01 0.000000000000000000e+00
Cu 6.944709930079492333e-01 2.249530691788990677e-01 0.000000000000000000e+00
Cu 6.942205933884236790e-01 3.249054183379149197e-01 0.000000000000000000e+00
Cu 6.940834020448618524e-01 4.249049396415724433e-01 0.000000000000000000e+00
Cu 6.939865534582170259e-01 5.248980679107975167e-01 0.000000000000000000e+00
Cu 6.938808441219274092e-01 6.247282729966808779e-01 0.000000000000000000e+00
Cu 6.920996291609775586e-01 7.234709935106123924e-01 0.000000000000000000e+00
Cu 6.908965657914255543e-01 8.243742109754130798e-01 0.000000000000000000e+00
Cu 6.913641246727327827e-01 9.254112946293814312e-01 0.000000000000000000e+00
Cu 8.114882951933111155e-01 2.586960359443800372e-02 0.000000000000000000e+00
Cu 8.110456799963640107e-01 1.255987517185644664e-01 0.000000000000000000e+00
Cu 8.106999265452663472e-01 2.253926852970189743e-01 0.000000000000000000e+00
Cu 8.104701119585557834e-01 3.252579172508887617e-01 0.000000000000000000e+00
Cu 8.103635647006990350e-01 4.252057646987021378e-01 0.000000000000000000e+00
Cu 8.104077655829423632e-01 5.252604253712374049e-01 0.000000000000000000e+00
Cu 8.103894118703901528e-01 6.254509127782479361e-01 0.000000000000000000e+00
Cu 8.109772527347216542e-01 7.258316115792865508e-01 0.000000000000000000e+00
Cu 8.018810007968402154e-01 8.228844342708264703e-01 0.000000000000000000e+00
Cu 8.089541001408431242e-01 9.242815868153011483e-01 0.000000000000000000e+00
Cu 9.279180141951250960e-01 2.650060223354515701e-02 0.000000000000000000e+00
Cu 9.274819000304378447e-01 1.260977222101480610e-01 0.000000000000000000e+00
Cu 9.271417045016594471e-01 2.257561808100272960e-01 0.000000000000000000e+00
Cu 9.269175913296309188e-01 3.254790722493468014e-01 0.000000000000000000e+00
Cu 9.268345977895821042e-01 4.252779671576060738e-01 0.000000000000000000e+00
Cu 9.268815974986275297e-01 5.251795466971729276e-01 0.000000000000000000e+00
Cu 9.272676566209770987e-01 6.252167951526075296e-01 0.000000000000000000e+00
Cu 9.272884400285803519e-01 7.254468217492181514e-01 0.000000000000000000e+00
Cu 9.371782707269459278e-01 8.222579149004280996e-01 0.000000000000000000e+00
Cu 9.310731825025374553e-01 9.235684328755954242e-01 0.000000000000000000e+00
Cu 1.044625767138244177e+00 2.713719777248609077e-02 0.000000000000000000e+00
Cu 1.044189797633376715e+00 1.265777429576919744e-01 0.000000000000000000e+00
Cu 1.043856360683584228e+00 2.260639416635240873e-01 0.000000000000000000e+00
Cu 1.043651084834001264e+00 3.255836205743056766e-01 0.000000000000000000e+00
Cu 1.043600885804993439e+00 4.251253188072315337e-01 0.000000000000000000e+00
Cu 1.043794621049210170e+00 5.246468894472546829e-01 0.000000000000000000e+00
Cu 1.044269940130884811e+00 6.240071890169298641e-01 0.000000000000000000e+00
Cu 1.046667785972023257e+00 7.222825893966052790e-01 0.000000000000000000e+00
Cu 1.048696187279652303e+00 8.227323846308829403e-01 0.000000000000000000e+00
Cu 1.049250468771322664e+00 9.233373768141808213e-01 0.000000000000000000e+00
Cu 1.161645828984984696e+00 2.779769005749038735e-02 0.000000000000000000e+00
Cu 1.161211282427464964e+00 1.270632013722803599e-01 0.000000000000000000e+00
Cu 1.160900868062692437e+00 2.263450729093599290e-01 0.000000000000000000e+00
Cu 1.160740781031241342e+00 3.256096446385827181e-01 0.000000000000000000e+00
Cu 1.160783917342357086e+00 4.248188891062089079e-01 0.000000000000000000e+00
Cu 1.161110897557798838e+00 5.239074420734580739e-01 0.000000000000000000e+00
Cu 1.162074250216441618e+00 6.227123888308885302e-01 0.000000000000000000e+00
Cu 1.163305025198557940e+00 7.218698098593890888e-01 0.000000000000000000e+00
Cu 1.164436993683770183e+00 8.215447775993314217e-01 0.000000000000000000e+00
Cu 1.165767241408638633e+00 9.212651366365723904e-01 0.000000000000000000e+00
Cu 1.278995117646951174e+00 2.849742858743692375e-02 0.000000000000000000e+00
Cu 1.278574495373433706e+00 1.275800979531532819e-01 0.000000000000000000e+00
Cu 1.278315402640357812e+00 2.266383609841519653e-01 0.000000000000000000e+00
Cu 1.278236458201156944e+00 3.256207063254772383e-01 0.000000000000000000e+00
Cu 1.278376343688800709e+00 4.244947363011725150e-01 0.000000000000000000e+00
Cu 1.278826191067914619e+00 5.232474191881768544e-01 0.000000000000000000e+00
Cu 1.279534372226630135e+00 6.220554089319788593e-01 0.000000000000000000e+00
Cu 1.280361331769850342e+00 7.210887712811997474e-01 0.000000000000000000e+00
Cu 1.281333163935668873e+00 8.203131526031701704e-01 0.000000000000000000e+00
Cu 1.282481408257738043e+00 9.196349971221804420e-01 0.000000000000000000e+00
Cu 1.396666024872075473e+00 2.924256266054046580e-02 0.000000000000000000e+00
Cu 1.396287469383995727e+00 1.281494708005934957e-01 0.000000000000000000e+00
Cu 1.396122045479987861e+00 2.269834053342945634e-01 0.000000000000000000e+00
Cu 1.396152682132075107e+00 3.256872982330025201e-01 0.000000000000000000e+00
Cu 1.396376730563390955e+00 4.242601133538224101e-01 0.000000000000000000e+00
Cu 1.396769804417365535e+00 5.227897697423901091e-01 0.000000000000000000e+00
Cu 1.397283418151586742e+00 6.214081302837413112e-01 0.000000000000000000e+00
Cu 1.397913688930407350e+00 7.201924729767039679e-01 0.000000000000000000e+00
Cu 1.398700925120351046e+00 8.191480984606581695e-01 0.000000000000000000e+00
Cu 1.399658213738405266e+00 9.182369543604639306e-01 0.000000000000000000e+00
Cu 1.514621143289183181e+00 3.001796283784102445e-02 0.000000000000000000e+00
Cu 1.514337588614426799e+00 1.287719695505870898e-01 0.000000000000000000e+00
Cu 1.514327977609782216e+00 2.273971901242013705e-01 0.000000000000000000e+00
Cu 1.514511980041256756e+00 3.258400906440427902e-01 0.000000000000000000e+00
Cu 1.514805275803200679e+00 4.241362575208690866e-01 0.000000000000000000e+00
Cu 1.515135920047550044e+00 5.223946073503696885e-01 0.000000000000000000e+00
Cu 1.515484458329708017e+00 6.207424714283631406e-01 0.000000000000000000e+00
Cu 1.515897823688937773e+00 7.192713075132738387e-01 0.000000000000000000e+00
Cu 1.516454876872552537e+00 8.180118824094725349e-01 0.000000000000000000e+00
Cu 1.517230802594125016e+00 9.169169796398444205e-01 0.000000000000000000e+00
Cu 1.632791852205071059e+00 3.076946808473345757e-02 0.000000000000000000e+00
Cu 1.632696439946397904e+00 1.294057358311885564e-01 0.000000000000000000e+00
Cu 1.632942414905317330e+00 2.278417842707791130e-01 0.000000000000000000e+00
Cu 1.633357511470011181e+00 3.260398132102025337e-01 0.000000000000000000e+00
Cu 1.633768647113989836e+00 4.240643910224176083e-01 0.000000000000000000e+00
Cu 1.634054747467783564e+00 5.220402473434450075e-01 0.000000000000000000e+00
Cu 1.634205624515158384e+00 6.201064519095266236e-01 0.000000000000000000e+00
Cu 1.634323192255374479e+00 7.183803550592797738e-01 0.000000000000000000e+00
Cu 1.634566159882637759e+00 8.169192380487311222e-01 0.000000000000000000e+00
Cu 1.635098996103615754e+00 9.156807420521222429e-01 0.000000000000000000e+00
Cu 1.751076519674322762e+00 3.138207056929574051e-02 0.000000000000000000e+00
Cu 1.751331629340334040e+00 1.299418598875302089e-01 0.000000000000000000e+00
Cu 1.751992493733245393e+00 2.281955076238538216e-01 0.000000000000000000e+00
Cu 1.752755390143525771e+00 3.261624798468313324e-01 0.000000000000000000e+00
Cu 1.753345534974051212e+00 4.239755028922452817e-01 0.000000000000000000e+00
Cu 1.753600101358535168e+00 5.217591898324042132e-01 0.000000000000000000e+00
Cu 1.753510918738975910e+00 6.196041918675360138e-01 0.000000000000000000e+00
Cu 1.753225272791899547e+00 7.176317905359228533e-01 0.000000000000000000e+00
Cu 1.753005241128678504e+00 8.159689909086836890e-01 0.000000000000000000e+00
Cu 1.753145956928375382e+00 9.146287673496357185e-01 0.000000000000000000e+00
Cu 1.869326027874589347e+00 3.164676662689255848e-02 0.000000000000000000e+00
Cu 1.870228063480582348e+00 1.301703042842717040e-01 0.000000000000000000e+00
Cu 1.871550530295518433e+00 2.282172053562299963e-01 0.000000000000000000e+00
Cu 1.872763268369204148e+00 3.259981988997715519e-01 0.000000000000000000e+00
Cu 1.873526007678691041e+00 4.237815652608729611e-01 0.000000000000000000e+00
Cu 1.873758950302605086e+00 5.216167732499537024e-01 0.000000000000000000e+00
Cu 1.873454136778984758e+00 6.194243706364055413e-01 0.000000000000000000e+00
Cu 1.872676756769447781e+00 7.172516354491133006e-01 0.000000000000000000e+00
Cu 1.871756377157449913e+00 8.153626744737730858e-01 0.000000000000000000e+00
Cu 1.871216164404576610e+00 9.139627248768321666e-01 0.000000000000000000e+00
Cu 1.987286112759597767e+00 3.117061231530817225e-02 0.000000000000000000e+00
Cu 1.989449536527498008e+00 1.296867388873893800e-01 0.000000000000000000e+00
Cu 1.991767520955332049e+00 2.274842759580288920e-01 0.000000000000000000e+00
Cu 1.993356656294773099e+00 3.253088643467045848e-01 0.000000000000000000e+00
Cu 1.994162935219492727e+00 4.234261664183229801e-01 0.000000000000000000e+00
Cu 1.994382355130250195e+00 5.216502814886890826e-01 0.000000000000000000e+00
Cu 1.994006934117085184e+00 6.197870291017116839e-01 0.000000000000000000e+00
Cu 1.992825518417917774e+00 7.176482933582609691e-01 0.000000000000000000e+00
Cu 1.990880550481853417e+00 8.154953462141935061e-01 0.000000000000000000e+00
Cu 1.989051332375222580e+00 9.140688286847826749e-01 0.000000000000000000e+00
Cu 2.104420605751355033e+00 2.903240218844704845e-02 0.000000000000000000e+00
Cu 2.109349825872842921e+00 1.275392362551123482e-01 0.000000000000000000e+00
Cu 2.112697867942076702e+00 2.254895006437220573e-01 0.000000000000000000e+00
Cu 2.114265984930089992e+00 3.241051434877779136e-01 0.000000000000000000e+00
Cu 2.115045930669015029e+00 4.229332400110514811e-01 0.000000000000000000e+00
Cu 2.115257654515958485e+00 5.218174018268865177e-01 0.000000000000000000e+00
Cu 2.114893904977510619e+00 6.206649804791413150e-01 0.000000000000000000e+00
Cu 2.113719878733106405e+00 7.193156214342557586e-01 0.000000000000000000e+00
Cu 2.110729097557427991e+00 8.173111967169460756e-01 0.000000000000000000e+00
Cu 2.106113179596815765e+00 9.158643691630847794e-01 0.000000000000000000e+00
Cu 2.219324799147067040e+00 2.106665841294418431e-02 0.000000000000000000e+00
Cu 2.230292970248375362e+00 1.221813043279351696e-01 0.000000000000000000e+00
Cu 2.233576549502461983e+00 2.227528152472368628e-01 0.000000000000000000e+00
Cu 2.235261416089112441e+00 3.227351689453614170e-01 0.000000000000000000e+00
Cu 2.236048359332568847e+00 4.224053099448108473e-01 0.000000000000000000e+00
Cu 2.236255415479130537e+00 5.219974651207784921e-01 0.000000000000000000e+00
Cu 2.235876623113540074e+00 6.216926563405278383e-01 0.000000000000000000e+00
Cu 2.234582199745091202e+00 7.217206136379057391e-01 0.000000000000000000e+00
Cu 2.231658610696702905e+00 8.223480007059323915e-01 0.000000000000000000e+00
Cu 2.221007171870926999e+00 9.235240001611931815e-01 0.000000000000000000e+00
