200

Cu 0.000000000000000000e+00 3.312541494826681809e-02 0.000000000000000000e+00
Cu 0.000000000000000000e+00 1.319866540591949911e-01 0.000000000000000000e+00
Cu 0.000000000000000000e+00 2.299046364716574031e-01 0.000000000000000000e+00
Cu 0.000000000000000000e+00 3.273965739105741402e-01 0.000000000000000000e+00
Cu 0.000000000000000000e+00 4.247463339526549864e-01 0.000000000000000000e+00
Cu 0.000000000000000000e+00 5.220958679624085885e-01 0.000000000000000000e+00
Cu 0.000000000000000000e+00 6.195582810128790197e-01 0.000000000000000000e+00
Cu 0.000000000000000000e+00 7.172610237788669130e-01 0.000000000000000000e+00
Cu 0.000000000000000000e+00 8.154577996988616739e-01 0.000000000000000000e+00
Cu 0.000000000000000000e+00 9.146186827308577794e-01 0.000000000000000000e+00
Cu 1.236249126538601084e-01 3.685568273087724139e-02 0.000000000000000000e+00
Cu 1.225482539998643261e-01 1.332728972579609872e-01 0.000000000000000000e+00
Cu 1.224812307766619951e-01 2.304439458791019968e-01 0.000000000000000000e+00
Cu 1.224271273668643828e-01 3.276582042674875961e-01 0.000000000000000000e+00
Cu 1.223470140965716435e-01 4.248403716096677551e-01 0.000000000000000000e+00
Cu 1.222319179328357347e-01 5.220512392897324050e-01 0.000000000000000000e+00
Cu 1.220896987991086785e-01 6.193542342934819089e-01 0.000000000000000000e+00
Cu 1.219420715183262977e-01 7.167948339411760461e-01 0.000000000000000000e+00
Cu 1.218349186592394828e-01 8.142824010718209271e-01 0.000000000000000000e+00
Cu 1.227289245178781324e-01 9.111153974425771906e-01 0.000000000000000000e+00
Cu 2.467776199214709587e-01 3.862771497883635274e-02 0.000000000000000000e+00
Cu 2.458482674650254163e-01 1.349170826320446048e-01 0.000000000000000000e+00
Cu 2.453298750763984182e-01 2.314266520109508340e-01 0.000000000000000000e+00
Cu 2.451094400272546825e-01 3.282201073338062436e-01 0.000000000000000000e+00
Cu 2.449003140077274099e-01 4.251068233626064119e-01 0.000000000000000000e+00
Cu 2.446616103754191973e-01 5.220541775717665312e-01 0.000000000000000000e+00
Cu 2.444164503265467414e-01 6.190669585725948609e-01 0.000000000000000000e+00
Cu 2.442312165455887418e-01 7.160913498971727131e-01 0.000000000000000000e+00
Cu 2.443812173671098265e-01 8.129350980332006316e-01 0.000000000000000000e+00
Cu 2.449740743726017411e-01 9.096608919043847052e-01 0.000000000000000000e+00
Cu 3.698459014270220613e-01 3.992063012294770619e-02 0.000000000000000000e+00
Cu 3.690749506115476031e-01 1.361835287702952979e-01 0.000000000000000000e+00
Cu 3.684985022674262534e-01 2.325228423324653404e-01 0.000000000000000000e+00
Cu 3.681085640805863424e-01 3.289910533609962107e-01 0.000000000000000000e+00
Cu 3.677718048292244468e-01 4.255443229770587976e-01 0.000000000000000000e+00
Cu 3.673954538304484152e-01 5.221386059723832629e-01 0.000000000000000000e+00
Cu 3.670420456967962153e-01 6.187921186820045660e-01 0.000000000000000000e+00
Cu 3.668317349815219952e-01 7.154618251277946595e-01 0.000000000000000000e+00
Cu 3.668396085366046888e-01 8.121242822038654552e-01 0.000000000000000000e+00
Cu 3.670798199764289116e-01 9.088458531626606440e-01 0.000000000000000000e+00
Cu 4.929318033992515224e-01 4.098337497472921004e-02 0.000000000000000000e+00
Cu 4.922851075435945023e-01 1.372233115689227845e-01 0.000000000000000000e+00
Cu 4.917672351989859081e-01 2.335034232983332070e-01 0.000000000000000000e+00
Cu 4.913668047109737147e-01 3.298321120496092718e-01 0.000000000000000000e+00
Cu 4.910146942657495628e-01 4.261661815456382341e-01 0.000000000000000000e+00
Cu 4.905248715004892346e-01 5.223901743894561189e-01 0.000000000000000000e+00
Cu 4.899532423292163319e-01 6.186352302940917314e-01 0.000000000000000000e+00
Cu 4.895326836749904764e-01 7.150898773447642576e-01 0.000000000000000000e+00
Cu 4.892556113213603619e-01 8.117255815191646295e-01 0.000000000000000000e+00
Cu 4.890867253592898756e-01 9.084921736837119344e-01 0.000000000000000000e+00
Cu 6.160828746819506652e-01 4.189143162294056699e-02 0.000000000000000000e+00
Cu 6.155407203220283341e-01 1.380917711987351415e-01 0.000000000000000000e+00
Cu 6.151067540113875909e-01 2.343342196932001742e-01 0.000000000000000000e+00
Cu 6.147819076198235422e-01 3.306174435114000998e-01 0.000000000000000000e+00
Cu 6.145101973744088175e-01 4.268928942477085431e-01 0.000000000000000000e+00
Cu 6.142043827157386282e-01 5.230365889368101540e-01 0.000000000000000000e+00
Cu 6.132516686170833564e-01 6.187097278357786001e-01 0.000000000000000000e+00
Cu 6.122084748114356989e-01 7.148380129463213217e-01 0.000000000000000000e+00
Cu 6.115894835893833648e-01 8.117390054671864696e-01 0.000000000000000000e+00
Cu 6.109670642808356922e-01 9.087599284605718530e-01 0.000000000000000000e+00
Cu 7.393455342105016426e-01 4.266990723568390986e-02 0.000000000000000000e+00
Cu 7.388911586767783479e-01 1.388060913705848332e-01 0.000000000000000000e+00
Cu 7.385352374884823767e-01 2.349968500740431676e-01 0.000000000000000000e+00
Cu 7.382872464573290161e-01 3.312514909711514743e-01 0.000000000000000000e+00
Cu 7.381544286875293404e-01 4.275629132102662378e-01 0.000000000000000000e+00
Cu 7.379969031772141141e-01 5.238572195586569391e-01 0.000000000000000000e+00
Cu 7.378836355793857438e-01 6.199440367271255026e-01 0.000000000000000000e+00
Cu 7.348831281298068285e-01 7.142675170898405979e-01 0.000000000000000000e+00
Cu 7.329216040188674119e-01 8.119434632049452594e-01 0.000000000000000000e+00
Cu 7.330904227002225104e-01 9.100340074297521564e-01 0.000000000000000000e+00
Cu 8.627709650483873505e-01 4.333563676005276061e-02 0.000000000000000000e+00
Cu 8.623884636805362325e-01 1.393781262669427368e-01 0.000000000000000000e+00
Cu 8.620906091825616402e-01 2.354829017724170692e-01 0.000000000000000000e+00
Cu 8.619034944858249281e-01 3.316705837993685346e-01 0.000000000000000000e+00
Cu 8.618257170610751361e-01 4.279682841709667729e-01 0.000000000000000000e+00
Cu 8.619303568375525915e-01 5.244247405860552602e-01 0.000000000000000000e+00
Cu 8.617481194857691262e-01 6.210901478051238378e-01 0.000000000000000000e+00
Cu 8.629929807072196368e-01 7.181655634371892916e-01 0.000000000000000000e+00
Cu 8.476832490216701377e-01 8.098271540890648046e-01 0.000000000000000000e+00
Cu 8.587311336594861677e-01 9.086392055846963522e-01 0.000000000000000000e+00
Cu 9.864129885746901749e-01 4.390880696275161615e-02 0.000000000000000000e+00
Cu 9.860873540356943634e-01 1.398267408276066270e-01 0.000000000000000000e+00
Cu 9.858365232803005807e-01 2.358018434866658297e-01 0.000000000000000000e+00
Cu 9.856854740793032921e-01 3.318501042025810976e-01 0.000000000000000000e+00
Cu 9.856767252579943239e-01 4.279989503904286230e-01 0.000000000000000000e+00
Cu 9.857570219591861305e-01 5.243008232601080731e-01 0.000000000000000000e+00
Cu 9.863906440187509839e-01 6.208111021122773021e-01 0.000000000000000000e+00
Cu 9.858135263773597501e-01 7.177452490170929122e-01 0.000000000000000000e+00
Cu 1.001921700204632781e+00 8.091132391035713578e-01 0.000000000000000000e+00
Cu 9.918578584989317104e-01 9.078894260200118804e-01 0.000000000000000000e+00
Cu 1.110320910289670504e+00 4.441453383358268114e-02 0.000000000000000000e+00
Cu 1.110042738795141704e+00 1.401801458122426680e-01 0.000000000000000000e+00
Cu 1.109838505828053767e+00 2.359809512796890996e-01 0.000000000000000000e+00
Cu 1.109746044016043598e+00 3.318100151443352241e-01 0.000000000000000000e+00
Cu 1.109795029793715138e+00 4.276603858678727499e-01 0.000000000000000000e+00
Cu 1.110144784081152691e+00 5.234743715012083465e-01 0.000000000000000000e+00
Cu 1.110707453592465255e+00 6.190857114043482046e-01 0.000000000000000000e+00
Cu 1.114383178389238616e+00 7.129343047454708149e-01 0.000000000000000000e+00
Cu 1.117203933046108544e+00 8.101519598897634067e-01 0.000000000000000000e+00
Cu 1.118068706826798042e+00 9.078146708420502531e-01 0.000000000000000000e+00
Cu 1.234531761248314208e+00 4.488152721672415690e-02 0.000000000000000000e+00
Cu 1.234298277881172412e+00 1.404755137586504166e-01 0.000000000000000000e+00
Cu 1.234160044840177717e+00 2.360660827580192966e-01 0.000000000000000000e+00
Cu 1.234153577172025562e+00 3.316157652073940532e-01 0.000000000000000000e+00
Cu 1.234358851485072961e+00 4.270756090997533394e-01 0.000000000000000000e+00
Cu 1.234865104859178997e+00 5.223623247955551108e-01 0.000000000000000000e+00
Cu 1.236277848971685689e+00 6.171931428082635396e-01 0.000000000000000000e+00
Cu 1.238021250347689950e+00 7.125304685708717667e-01 0.000000000000000000e+00
Cu 1.239555489246776609e+00 8.087023688084782336e-01 0.000000000000000000e+00
Cu 1.241240400860861515e+00 9.050211530697950257e-01 0.000000000000000000e+00
Cu 1.359059944409706455e+00 4.533863489313093992e-02 0.000000000000000000e+00
Cu 1.358879587765659647e+00 1.407562231178527967e-01 0.000000000000000000e+00
Cu 1.358836043797183590e+00 2.361207818596653962e-01 0.000000000000000000e+00
Cu 1.358959836863083304e+00 3.313697783492008941e-01 0.000000000000000000e+00
Cu 1.359302525929795724e+00 4.264622889062542055e-01 0.000000000000000000e+00
Cu 1.360014737433423049e+00 5.213663471243603631e-01 0.000000000000000000e+00
Cu 1.361033575507232474e+00 6.163322371511579245e-01 0.000000000000000000e+00
Cu 1.362149667431810540e+00 7.116368645291952788e-01 0.000000000000000000e+00
Cu 1.363367184687168443e+00 8.072586889829617141e-01 0.000000000000000000e+00
Cu 1.364681883143158636e+00 9.030803338691985038e-01 0.000000000000000000e+00
Cu 1.483888734715947733e+00 4.580602076500132902e-02 0.000000000000000000e+00
Cu 1.483785297991660368e+00 1.410619702776692019e-01 0.000000000000000000e+00
Cu 1.483879870159204639e+00 2.362099519889332977e-01 0.000000000000000000e+00
Cu 1.484156337963357553e+00 3.311809527907951245e-01 0.000000000000000000e+00
Cu 1.484622028926854354e+00 4.259713611723382476e-01 0.000000000000000000e+00
Cu 1.485253262195844304e+00 5.206961764845156049e-01 0.000000000000000000e+00
Cu 1.485980855470145467e+00 6.155422307124833736e-01 0.000000000000000000e+00
Cu 1.486782952153868909e+00 7.106292664837340345e-01 0.000000000000000000e+00
Cu 1.487689171406237465e+00 8.059780773118986330e-01 0.000000000000000000e+00
Cu 1.488692565953005031e+00 9.015384039004047390e-01 0.000000000000000000e+00
Cu 1.608963957051672944e+00 4.627859742607036420e-02 0.000000000000000000e+00
Cu 1.608989057305995063e+00 1.414074679132003021e-01 0.000000000000000000e+00
Cu 1.609284567473979743e+00 2.363689895763079751e-01 0.000000000000000000e+00
Cu 1.609756182150172021e+00 3.310986604051750493e-01 0.000000000000000000e+00
Cu 1.610304766474156768e+00 4.256429860443631807e-01 0.000000000000000000e+00
Cu 1.610841044024369451e+00 5.201425250864155636e-01 0.000000000000000000e+00
Cu 1.611332670893463215e+00 6.147633502484440848e-01 0.000000000000000000e+00
Cu 1.611824438076111310e+00 7.096275535116198796e-01 0.000000000000000000e+00
Cu 1.612400487668256499e+00 8.047788919396497986e-01 0.000000000000000000e+00
Cu 1.613141529661917817e+00 9.001574323506921216e-01 0.000000000000000000e+00
Cu 1.734192675036084319e+00 4.670241529968412186e-02 0.000000000000000000e+00
Cu 1.734444750789264855e+00 1.417545804240392116e-01 0.000000000000000000e+00
Cu 1.735049137753451376e+00 2.365639298702801041e-01 0.000000000000000000e+00
Cu 1.735795245833123168e+00 3.310848877854448147e-01 0.000000000000000000e+00
Cu 1.736474460522418051e+00 4.253993897603984831e-01 0.000000000000000000e+00
Cu 1.736939298541215981e+00 5.196618298328999908e-01 0.000000000000000000e+00
Cu 1.737170185044631721e+00 6.140426850072093767e-01 0.000000000000000000e+00
Cu 1.737279095117182148e+00 7.086864245115557237e-01 0.000000000000000000e+00
Cu 1.737449243243463171e+00 8.036644472493198466e-01 0.000000000000000000e+00
Cu 1.737876442289931544e+00 8.989222625024569924e-01 0.000000000000000000e+00
Cu 1.859439328356864207e+00 4.694688411984140192e-02 0.000000000000000000e+00
Cu 1.860099645768926058e+00 1.419824076263173640e-01 0.000000000000000000e+00
Cu 1.861194116858829073e+00 2.366595455637547363e-01 0.000000000000000000e+00
Cu 1.862347100040407266e+00 3.309963006263614838e-01 0.000000000000000000e+00
Cu 1.863227736868059647e+00 4.251537550485345318e-01 0.000000000000000000e+00
Cu 1.863640566337661619e+00 5.192830616897101681e-01 0.000000000000000000e+00
Cu 1.863569598061931343e+00 6.134930714371001903e-01 0.000000000000000000e+00
Cu 1.863180814844311195e+00 7.079294130974321808e-01 0.000000000000000000e+00
Cu 1.862782278966823135e+00 8.027439536345585269e-01 0.000000000000000000e+00
Cu 1.862734264326864064e+00 8.979439895457517196e-01 0.000000000000000000e+00
Cu 1.984503705344520474e+00 4.676364311642570298e-02 0.000000000000000000e+00
Cu 1.985914788854277857e+00 1.418474828641251018e-01 0.000000000000000000e+00
Cu 1.987794939848082532e+00 2.363753399925139220e-01 0.000000000000000000e+00
Cu 1.989484655927819423e+00 3.305842295091148686e-01 0.000000000000000000e+00
Cu 1.990565550086554891e+00 4.247974990979367926e-01 0.000000000000000000e+00
Cu 1.990942566699804628e+00 5.190785954009278225e-01 0.000000000000000000e+00
Cu 1.990600400615625043e+00 6.133320378488891222e-01 0.000000000000000000e+00
Cu 1.989606150555685904e+00 7.076174084338934245e-01 0.000000000000000000e+00
Cu 1.988358159001423875e+00 8.022511198481955264e-01 0.000000000000000000e+00
Cu 1.987503166039887637e+00 8.974617296552126477e-01 0.000000000000000000e+00
Cu 2.109036590445517945e+00 4.567885641934948254e-02 0.000000000000000000e+00
Cu 2.111931671752958817e+00 1.408728327355636689e-01 0.000000000000000000e+00
Cu 2.115032590012302371e+00 2.352016011125471762e-01 0.000000000000000000e+00
Cu 2.117199078789270494e+00 3.295499828387655761e-01 0.000000000000000000e+00
Cu 2.118333918018452611e+00 4.242571867830934318e-01 0.000000000000000000e+00
Cu 2.118688874059854843e+00 5.190918666183595986e-01 0.000000000000000000e+00
Cu 2.118248576342177003e+00 6.138315312561499759e-01 0.000000000000000000e+00
Cu 2.116732271506210683e+00 7.082411290324079900e-01 0.000000000000000000e+00
Cu 2.114214743519924333e+00 8.026521445388254961e-01 0.000000000000000000e+00
Cu 2.111827999389235710e+00 8.979418863371975146e-01 0.000000000000000000e+00
Cu 2.232253205163941878e+00 4.256138688353101190e-02 0.000000000000000000e+00
Cu 2.238548616759414855e+00 1.379047879263626264e-01 0.000000000000000000e+00
Cu 2.243036141046624188e+00 2.324682707019443684e-01 0.000000000000000000e+00
Cu 2.245179712268829508e+00 3.278894948082786698e-01 0.000000000000000000e+00
Cu 2.246308772071789139e+00 4.235497267455651249e-01 0.000000000000000000e+00
Cu 2.246651679331862717e+00 5.192764070416536759e-01 0.000000000000000000e+00
Cu 2.246194350813529805e+00 6.149703235912908905e-01 0.000000000000000000e+00
Cu 2.244679391998900098e+00 7.104513974359250028e-01 0.000000000000000000e+00
Cu 2.240748812729099981e+00 8.050926614218267829e-01 0.000000000000000000e+00
Cu 2.234923384231644050e+00 9.005140560322922871e-01 0.000000000000000000e+00
Cu 2.351802568399975257e+00 3.209516208523214426e-02 0.000000000000000000e+00
Cu 2.366538497953975639e+00 1.308166446823697815e-01 0.000000000000000000e+00
Cu 2.370844483122544588e+00 2.288319160471215530e-01 0.000000000000000000e+00
Cu 2.373207321315999874e+00 3.260255185668846645e-01 0.000000000000000000e+00
Cu 2.374347213200445506e+00 4.227999031703436050e-01 0.000000000000000000e+00
Cu 2.374683390000117189e+00 5.194769881645457943e-01 0.000000000000000000e+00
Cu 2.374203848817798335e+00 6.162962394673688893e-01 0.000000000000000000e+00
Cu 2.372465951482504831e+00 7.135716721535031448e-01 0.000000000000000000e+00
Cu 2.368723343383708713e+00 8.116858818181881263e-01 0.000000000000000000e+00
Cu 2.354462517050479153e+00 9.105192904239938212e-01 0.000000000000000000e+00
