200

Cu 0.000000000000000000e+00 5.244653889940442681e-02 0.000000000000000000e+00
Cu 0.000000000000000000e+00 1.476063370980622569e-01 0.000000000000000000e+00
Cu 0.000000000000000000e+00 2.412713507275760783e-01 0.000000000000000000e+00
Cu 0.000000000000000000e+00 3.342631162402462386e-01 0.000000000000000000e+00
Cu 0.000000000000000000e+00 4.270199131805417214e-01 0.000000000000000000e+00
Cu 0.000000000000000000e+00 5.197674313933823287e-01 0.000000000000000000e+00
Cu 0.000000000000000000e+00 6.126894699121203658e-01 0.000000000000000000e+00
Cu 0.000000000000000000e+00 7.059889403723128565e-01 0.000000000000000000e+00
Cu 0.000000000000000000e+00 8.000576937445652570e-01 0.000000000000000000e+00
Cu 0.000000000000000000e+00 8.956412794039055880e-01 0.000000000000000000e+00
Cu 1.337596192139848816e-01 5.789875508079747601e-02 0.000000000000000000e+00
Cu 1.323738699582284739e-01 1.494917401497065923e-01 0.000000000000000000e+00
Cu 1.323372934772079068e-01 2.420610249023837368e-01 0.000000000000000000e+00
Cu 1.322780091820414117e-01 3.346421227669129639e-01 0.000000000000000000e+00
Cu 1.321716621220040411e-01 4.271510505960023907e-01 0.000000000000000000e+00
Cu 1.320025009640022617e-01 5.196924986968614046e-01 0.000000000000000000e+00
Cu 1.317845473292067193e-01 6.123763960169440468e-01 0.000000000000000000e+00
Cu 1.315556150688484138e-01 7.052861294463764752e-01 0.000000000000000000e+00
Cu 1.313546776761016222e-01 7.983100756980590074e-01 0.000000000000000000e+00
Cu 1.325204887031977419e-01 8.904756676784262304e-01 0.000000000000000000e+00
Cu 2.668765809220275398e-01 6.045595661324553588e-02 0.000000000000000000e+00
Cu 2.657400924117608865e-01 1.517862330485092448e-01 0.000000000000000000e+00
Cu 2.651269649833716824e-01 2.434284586252906113e-01 0.000000000000000000e+00
Cu 2.648790974558417610e-01 3.354220369308517635e-01 0.000000000000000000e+00
Cu 2.646061377369631207e-01 4.275150441912865529e-01 0.000000000000000000e+00
Cu 2.642583223165110851e-01 5.196791206029812704e-01 0.000000000000000000e+00
Cu 2.638700330287387930e-01 6.119439901074875676e-01 0.000000000000000000e+00
Cu 2.635355307956651627e-01 7.042637863763804296e-01 0.000000000000000000e+00
Cu 2.636452416396403708e-01 7.963843087786484087e-01 0.000000000000000000e+00
Cu 2.643628993084964351e-01 8.883297219601091754e-01 0.000000000000000000e+00
Cu 3.998937465653141787e-01 6.222386904594852386e-02 0.000000000000000000e+00
Cu 3.989847807367195021e-01 1.535084066574504968e-01 0.000000000000000000e+00
Cu 3.983134416797157185e-01 2.448980220450877598e-01 0.000000000000000000e+00
Cu 3.978609040591623569e-01 3.364535582329881702e-01 0.000000000000000000e+00
Cu 3.974343024282820380e-01 4.281029244494212738e-01 0.000000000000000000e+00
Cu 3.968958479629385305e-01 5.197869044946554773e-01 0.000000000000000000e+00
Cu 3.963206230888238202e-01 6.115511564968880709e-01 0.000000000000000000e+00
Cu 3.958921729474483842e-01 7.033742242749381202e-01 0.000000000000000000e+00
Cu 3.957641124383984299e-01 7.952339056747471657e-01 0.000000000000000000e+00
Cu 3.959960559857346740e-01 8.871850441857803693e-01 0.000000000000000000e+00
Cu 5.329096194766891337e-01 6.360786625857442478e-02 0.000000000000000000e+00
Cu 5.321832134969333161e-01 1.548712533179797401e-01 0.000000000000000000e+00
Cu 5.316011760585828139e-01 2.461836079472302097e-01 0.000000000000000000e+00
Cu 5.311402479497784324e-01 3.375554616986151113e-01 0.000000000000000000e+00
Cu 5.307099159342592021e-01 4.289315694782949162e-01 0.000000000000000000e+00
Cu 5.300209208112078851e-01 5.201406867414278823e-01 0.000000000000000000e+00
Cu 5.291253229109377232e-01 6.113508201240149820e-01 0.000000000000000000e+00
Cu 5.283402011047514391e-01 7.028579781729044074e-01 0.000000000000000000e+00
Cu 5.277519386026955361e-01 7.946738496144759578e-01 0.000000000000000000e+00
Cu 5.274110598613928058e-01 8.867286750969237685e-01 0.000000000000000000e+00
Cu 6.659662767373110137e-01 6.472419703530989110e-02 0.000000000000000000e+00
Cu 6.653990275892186501e-01 1.559618248414893493e-01 0.000000000000000000e+00
Cu 6.649402952495887531e-01 2.472457108580551066e-01 0.000000000000000000e+00
Cu 6.645901729084433551e-01 3.385781092546674143e-01 0.000000000000000000e+00
Cu 6.642488654323995823e-01 4.298942041334536945e-01 0.000000000000000000e+00
Cu 6.638561123476646175e-01 5.210490298540972898e-01 0.000000000000000000e+00
Cu 6.624035630249098805e-01 6.115094816997442839e-01 0.000000000000000000e+00
Cu 6.607374692016563245e-01 7.025441447319596966e-01 0.000000000000000000e+00
Cu 6.595386710968627053e-01 7.947061725772663898e-01 0.000000000000000000e+00
Cu 6.584938028241850150e-01 8.871345194208710705e-01 0.000000000000000000e+00
Cu 7.991038452358369959e-01 6.560950066348912590e-02 0.000000000000000000e+00
Cu 7.986765188963986795e-01 1.568024000315867417e-01 0.000000000000000000e+00
Cu 7.983418756096497537e-01 2.480572585870062519e-01 0.000000000000000000e+00
Cu 7.980991923844173996e-01 3.393905313532903922e-01 0.000000000000000000e+00
Cu 7.979726080620752615e-01 4.307996710725372491e-01 0.000000000000000000e+00
Cu 7.976817587920643771e-01 5.221784399690103662e-01 0.000000000000000000e+00
Cu 7.976497233406696363e-01 6.133412838596957739e-01 0.000000000000000000e+00
Cu 7.928936349210974344e-01 7.018360886249640496e-01 0.000000000000000000e+00
Cu 7.900701164098491436e-01 7.950331146142343153e-01 0.000000000000000000e+00
Cu 7.895164290413532182e-01 8.891164202984526144e-01 0.000000000000000000e+00
Cu 9.323693496325524688e-01 6.628141400389207794e-02 0.000000000000000000e+00
Cu 9.320662884721038211e-01 1.574012851395505952e-01 0.000000000000000000e+00
Cu 9.318300906867162947e-01 2.485930631370555921e-01 0.000000000000000000e+00
Cu 9.316965185394947557e-01 3.398910353122993055e-01 0.000000000000000000e+00
Cu 9.316297187283738568e-01 4.313372944344815441e-01 0.000000000000000000e+00
Cu 9.318258565766787127e-01 5.230109474274261538e-01 0.000000000000000000e+00
Cu 9.312529427169627949e-01 6.149792206335120692e-01 0.000000000000000000e+00
Cu 9.337842849653196220e-01 7.077211068330450106e-01 0.000000000000000000e+00
Cu 9.097281918210124996e-01 7.920072123570570666e-01 0.000000000000000000e+00
Cu 9.260000501264966655e-01 8.873674272538922825e-01 0.000000000000000000e+00
Cu 1.065817197513970083e+00 6.676123905295951177e-02 0.000000000000000000e+00
Cu 1.065620573175170893e+00 1.577753695350894991e-01 0.000000000000000000e+00
Cu 1.065475691437759886e+00 2.488532191770645441e-01 0.000000000000000000e+00
Cu 1.065405228882146504e+00 3.400233059281913550e-01 0.000000000000000000e+00
Cu 1.065489555916742104e+00 4.313283580470221312e-01 0.000000000000000000e+00
Cu 1.065551182134310659e+00 5.228532806476934303e-01 0.000000000000000000e+00
Cu 1.066617256922333778e+00 6.146705002347730984e-01 0.000000000000000000e+00
Cu 1.064751276975437477e+00 7.072957916313248328e-01 0.000000000000000000e+00
Cu 1.089538973263363353e+00 7.912276536355320466e-01 0.000000000000000000e+00
Cu 1.074167199419777008e+00 8.866139838741465828e-01 0.000000000000000000e+00
Cu 1.199497677147063346e+00 6.708080854484706201e-02 0.000000000000000000e+00
Cu 1.199396833210852442e+00 1.579594656561084387e-01 0.000000000000000000e+00
Cu 1.199338448754850406e+00 2.488709594916213019e-01 0.000000000000000000e+00
Cu 1.199377534614538332e+00 3.398118325003173790e-01 0.000000000000000000e+00
Cu 1.199526694787590220e+00 4.307802763764339016e-01 0.000000000000000000e+00
Cu 1.200085228519603753e+00 5.216922396117515959e-01 0.000000000000000000e+00
Cu 1.200600808241958362e+00 6.123987643733586062e-01 0.000000000000000000e+00
Cu 1.206030088988497839e+00 7.004334004986951800e-01 0.000000000000000000e+00
Cu 1.209666467510958743e+00 7.931991001652523021e-01 0.000000000000000000e+00
Cu 1.211167090236661359e+00 8.868891240204780368e-01 0.000000000000000000e+00
Cu 1.333448211130558780e+00 6.728267937854418013e-02 0.000000000000000000e+00
Cu 1.333434826450137223e+00 1.580073473331379819e-01 0.000000000000000000e+00
Cu 1.333488268513818298e+00 2.487146611707274080e-01 0.000000000000000000e+00
Cu 1.333650548244571743e+00 3.393630045367579950e-01 0.000000000000000000e+00
Cu 1.334040516093265127e+00 4.298884278034453277e-01 0.000000000000000000e+00
Cu 1.334709120682400885e+00 5.201996153570699333e-01 0.000000000000000000e+00
Cu 1.336657812412334279e+00 6.098341911504344681e-01 0.000000000000000000e+00
Cu 1.339020808617037650e+00 7.001104039159684600e-01 0.000000000000000000e+00
Cu 1.341099613237990429e+00 7.915952181150780476e-01 0.000000000000000000e+00
Cu 1.343117355257410495e+00 8.833920752963152490e-01 0.000000000000000000e+00
Cu 1.467677950139690379e+00 6.741478267035391769e-02 0.000000000000000000e+00
Cu 1.467755428105980142e+00 1.579852804984450965e-01 0.000000000000000000e+00
Cu 1.467944671415688962e+00 2.484806908391424818e-01 0.000000000000000000e+00
Cu 1.468288524224636626e+00 3.388271928161639135e-01 0.000000000000000000e+00
Cu 1.468840222658211347e+00 4.289765424204193267e-01 0.000000000000000000e+00
Cu 1.469834087206328466e+00 5.188615626784292001e-01 0.000000000000000000e+00
Cu 1.471207161685817999e+00 6.087955345070966695e-01 0.000000000000000000e+00
Cu 1.472681639725825775e+00 6.991853180184165462e-01 0.000000000000000000e+00
Cu 1.474177062420571227e+00 7.900585782838012161e-01 0.000000000000000000e+00
Cu 1.475595492731937908e+00 8.812692928543477411e-01 0.000000000000000000e+00
Cu 1.602160517881801027e+00 6.751662214444288657e-02 0.000000000000000000e+00
Cu 1.602345050930755965e+00 1.579562257470421838e-01 0.000000000000000000e+00
Cu 1.602713152165231802e+00 2.482623590034906125e-01 0.000000000000000000e+00
Cu 1.603245585536496876e+00 3.383557546710664887e-01 0.000000000000000000e+00
Cu 1.603962089529705093e+00 4.282246968745397342e-01 0.000000000000000000e+00
Cu 1.604847114975767264e+00 5.180006960644947256e-01 0.000000000000000000e+00
Cu 1.605815303529254834e+00 6.079242167420393361e-01 0.000000000000000000e+00
Cu 1.606809440911138642e+00 6.981721890764127636e-01 0.000000000000000000e+00
Cu 1.607818813228679922e+00 7.887915741969155903e-01 0.000000000000000000e+00
Cu 1.608795037719096488e+00 8.797066803616875319e-01 0.000000000000000000e+00
Cu 1.736826463141333932e+00 6.759742218211971243e-02 0.000000000000000000e+00
Cu 1.737165093269288585e+00 1.579513541775095786e-01 0.000000000000000000e+00
Cu 1.737770587179653381e+00 2.481144700602564146e-01 0.000000000000000000e+00
Cu 1.738533476011126622e+00 3.380118006571088407e-01 0.000000000000000000e+00
Cu 1.739342169088914813e+00 4.276952169650025670e-01 0.000000000000000000e+00
Cu 1.740093336673348423e+00 5.173289703881406298e-01 0.000000000000000000e+00
Cu 1.740736987115992784e+00 6.071147700966006422e-01 0.000000000000000000e+00
Cu 1.741301686075672928e+00 6.972070514237765915e-01 0.000000000000000000e+00
Cu 1.741861907637948459e+00 7.876613014312012773e-01 0.000000000000000000e+00
Cu 1.742493380857704999e+00 8.783974518302367640e-01 0.000000000000000000e+00
Cu 1.871563056834725236e+00 6.760718913471212843e-02 0.000000000000000000e+00
Cu 1.872153822399407419e+00 1.579391733627212302e-01 0.000000000000000000e+00
Cu 1.873108547685814029e+00 2.480087485464498864e-01 0.000000000000000000e+00
Cu 1.874177333162875714e+00 3.377615978973165789e-01 0.000000000000000000e+00
Cu 1.875119385789781878e+00 4.272913110436460937e-01 0.000000000000000000e+00
Cu 1.875763419228693163e+00 5.167730906848475581e-01 0.000000000000000000e+00
Cu 1.876074624736469687e+00 6.063999729662159499e-01 0.000000000000000000e+00
Cu 1.876162174494174772e+00 6.963362160237914766e-01 0.000000000000000000e+00
Cu 1.876222386737587122e+00 7.866613871124372714e-01 0.000000000000000000e+00
Cu 1.876476324681511487e+00 8.773031910504698327e-01 0.000000000000000000e+00
Cu 2.006206111028387085e+00 6.740488120095053381e-02 0.000000000000000000e+00
Cu 2.007240224565647324e+00 1.577928586333735561e-01 0.000000000000000000e+00
Cu 2.008740809227497426e+00 2.478051921391889734e-01 0.000000000000000000e+00
Cu 2.010257513833935583e+00 3.374511858963897826e-01 0.000000000000000000e+00
Cu 2.011409297165322574e+00 4.269100170119895510e-01 0.000000000000000000e+00
Cu 2.011972934480976249e+00 5.163494749815670248e-01 0.000000000000000000e+00
Cu 2.011919763173287468e+00 6.058882072595411783e-01 0.000000000000000000e+00
Cu 2.011420779382759871e+00 6.956853463252963277e-01 0.000000000000000000e+00
Cu 2.010817195513300959e+00 7.859053471477585040e-01 0.000000000000000000e+00
Cu 2.010531977645363622e+00 8.765389189574640527e-01 0.000000000000000000e+00
Cu 2.140507843685899303e+00 6.671063306646790592e-02 0.000000000000000000e+00
Cu 2.142358536137817460e+00 1.572479582935319420e-01 0.000000000000000000e+00
Cu 2.144743127784896064e+00 2.472015895021063558e-01 0.000000000000000000e+00
Cu 2.146866605741615697e+00 3.368073011381613191e-01 0.000000000000000000e+00
Cu 2.148235642368467424e+00 4.264251217603422517e-01 0.000000000000000000e+00
Cu 2.148743079959289037e+00 5.161297823553214759e-01 0.000000000000000000e+00
Cu 2.148362614909496315e+00 6.058095669869490996e-01 0.000000000000000000e+00
Cu 2.147152837935560221e+00 6.955323403067900090e-01 0.000000000000000000e+00
Cu 2.145571424188604581e+00 7.856458717256995516e-01 0.000000000000000000e+00
Cu 2.144390074848982586e+00 8.763712697721572908e-01 0.000000000000000000e+00
Cu 2.274019529434573084e+00 6.498246913172035788e-02 0.000000000000000000e+00
Cu 2.277511499030588027e+00 1.557824005198404638e-01 0.000000000000000000e+00
Cu 2.281324634343868674e+00 2.456270633559906602e-01 0.000000000000000000e+00
Cu 2.284032992755709479e+00 3.354775549990158257e-01 0.000000000000000000e+00
Cu 2.285461401980654284e+00 4.257477114023960896e-01 0.000000000000000000e+00
Cu 2.285933927216467154e+00 5.161591367893678672e-01 0.000000000000000000e+00
Cu 2.285424645494404938e+00 6.064793170367601682e-01 0.000000000000000000e+00
Cu 2.283561373231050240e+00 6.964237810858815436e-01 0.000000000000000000e+00
Cu 2.280480245488485380e+00 7.863922483553225096e-01 0.000000000000000000e+00
Cu 2.277590115439098728e+00 8.773326610118965529e-01 0.000000000000000000e+00
Cu 2.405664544877574862e+00 6.091699878218191644e-02 0.000000000000000000e+00
Cu 2.413097564014056839e+00 1.521041509245915357e-01 0.000000000000000000e+00
Cu 2.418757861082899474e+00 2.422364182287893297e-01 0.000000000000000000e+00
Cu 2.421420750849113013e+00 3.334388144719427904e-01 0.000000000000000000e+00
Cu 2.422886058016602728e+00 4.248788658837098775e-01 0.000000000000000000e+00
Cu 2.423339599355029961e+00 5.163928064344511792e-01 0.000000000000000000e+00
Cu 2.422757881434069560e+00 6.078850361192936758e-01 0.000000000000000000e+00
Cu 2.420906259587304543e+00 6.991784932048572543e-01 0.000000000000000000e+00
Cu 2.415939456719570888e+00 7.894286440292834772e-01 0.000000000000000000e+00
Cu 2.409053092741614055e+00 8.807269922743272694e-01 0.000000000000000000e+00
Cu 2.531670973665480773e+00 4.808361799312740187e-02 0.000000000000000000e+00
Cu 2.550672579024255704e+00 1.433769831194489919e-01 0.000000000000000000e+00
Cu 2.555839637479833115e+00 2.378325623802567124e-01 0.000000000000000000e+00
Cu 2.558897597056759121e+00 3.311694756594161237e-01 0.000000000000000000e+00
Cu 2.560364161109355052e+00 4.239629421144933130e-01 0.000000000000000000e+00
Cu 2.560808252006501196e+00 5.166401485314314757e-01 0.000000000000000000e+00
Cu 2.560208910318286346e+00 6.095030714849500875e-01 0.000000000000000000e+00
Cu 2.557957630224831025e+00 7.029665256185811950e-01 0.000000000000000000e+00
Cu 2.553491182791935987e+00 7.975701866833608822e-01 0.000000000000000000e+00
Cu 2.535041430499833659e+00 8.930303053508724664e-01 0.000000000000000000e+00
